x,y,z,id,stress_xx
0,0,0,0,-2161445.6838872
0,-5100,0,5100,-129837430.11689
0,-4900,0,4900,-125024561.62714
0,-5200,0,5200,-134930145.56273
0,-4800,0,4800,-120476132.07887
0,-5300,0,5300,-134930145.56273
0,-4700,0,4700,-120476132.07887
0,-5400,0,5400,-134930145.56273
0,-4600,0,4600,-116159719.0301
0,-5500,0,5500,-140298446.7888
0,-4500,0,4500,-116159719.0301
0,-5600,0,5600,-140298446.7888
0,-4400,0,4400,-112063287.67229
0,-5700,0,5700,-146015704.7557
0,-4300,0,4300,-108016152.20719
0,-5800,0,5800,-146015704.7557
0,-4200,0,4200,-108016152.20719
0,-5900,0,5900,-151886473.36007
0,-4100,0,4100,-104525162.54216
0,-6000,0,6000,-151886473.36007
0,-4000,0,4000,-101211922.0532
0,-6100,0,6100,-158289003.06438
0,-3900,0,3900,-97842122.275105
0,-6200,0,6200,-158289003.06438
0,-3800,0,3800,-94932171.610156
0,-6300,0,6300,-158289003.06438
0,-3700,0,3700,-92184071.753453
0,-6400,0,6400,-165335246.95103
0,-3600,0,3600,-92184071.753453
0,-6500,0,6500,-165335246.95103
0,-3500,0,3500,-89133452.396864
0,-6600,0,6600,-165335246.95103
0,-3400,0,3400,7233902
0,-6700,0,6700,-172674312.71022
0,-3300,0,3300,7233902
0,-6800,0,6800,-172674312.71022
0,-3200,0,3200,7233902
0,-6900,0,6900,-172674312.71022
0,-3100,0,3100,7233902
0,-7000,0,7000,-180316522.08681
0,-3000,0,3000,7233902
0,-7100,0,7100,-180316522.08681
0,-2900,0,2900,7233902
0,-7200,0,7200,-180316522.08681
0,-2800,0,2800,7233902
0,-7300,0,7300,-188337690.72482
0,-2700,0,2700,7233902
0,-7400,0,7400,-188337690.72482
0,-2600,0,2600,7233902
0,-7500,0,7500,-188337690.72482
0,-5000,0,5000,-125024561.62714
0,-7600,0,7600,-196760348.62628
0,-2400,0,2400,-59025969.432501
0,-7700,0,7700,-196760348.62628
0,-2300,0,2300,-59025969.432501
0,-7800,0,7800,-196760348.62628
0,-2200,0,2200,-56240007.049662
0,-7900,0,7900,-196760348.62628
0,-2100,0,2100,-53586651.123442
0,-8000,0,8000,-206260748.15331
0,-2000,0,2000,-50772804.472937
0,-8100,0,8100,-206260748.15331
0,-1900,0,1900,-47800810.304411
0,-8200,0,8200,-206260748.15331
0,-1800,0,1800,-44793195.657391
0,-8300,0,8300,-216195171.78747
0,-1700,0,1700,-41666675.359179
0,-8400,0,8400,-216195171.78747
0,-1600,0,1600,-41666675.359179
0,-8500,0,8500,-216195171.78747
0,-1500,0,1500,-38504302.29449
0,-8600,0,8600,-216195171.78747
0,-1400,0,1400,-35021762.478087
0,-8700,0,8700,-226244894.60125
0,-1300,0,1300,-31457021.355022
0,-8800,0,8800,-226244894.60125
0,-2500,0,2500,-62531986.872915
0,-1200,0,1200,-31457021.355022
0,-8900,0,8900,-226244894.60125
0,-1100,0,1100,-27789120.710199
0,-9000,0,9000,-226244894.60125
0,-1000,0,1000,-23844706.792062
0,-9100,0,9100,-236940403.6799
0,-900,0,900,-23844706.792062
0,-9200,0,9200,-236940403.6799
0,-800,0,800,-19805416.383902
0,-9300,0,9300,-236940403.6799
0,-700,0,700,-15580319.8224
0,-9400,0,9400,-236940403.6799
0,-600,0,600,-15580319.8224
0,-9500,0,9500,-236940403.6799
0,-500,0,500,-11163276.664146
0,-9600,0,9600,-247650874.01729
0,-400,0,400,-11163276.664146
0,-9700,0,9700,-247650874.01729
0,-300,0,300,-6591031.6526655
0,-9800,0,9800,-247650874.01729
0,-200,0,200,-6591031.6526655
0,-9900,0,9900,-247650874.01729
0,-10000,0,10000,-247650874.01729
0,-100,0,100,-2161445.6838872
100,-1800,0,1802.775637732,-46294373.390058
100,-100,0,141.42135623731,-306461.49316155
100,-5300,0,5300.9433122794,-134930145.56273
100,-9300,0,9300.5376188691,-236940403.6799
100,-2900,0,2901.7236257094,7233902
100,-4000,0,4001.2498047485,-101211922.0532
100,-7200,0,7200.6944109579,-184273441.68555
100,-7100,0,7100.7041904307,-180316522.08681
100,-6100,0,6100.8196170679,-155005791.05158
100,-3000,0,3001.6662039607,7233902
100,-9200,0,9200.5434622092,-236940403.6799
100,-900,0,905.53851381374,-21826722.251401
100,-2800,0,2801.7851452244,7233902
100,-7300,0,7300.6848993776,-188337690.72482
100,-4400,0,4401.1362169331,-109960590.35306
100,-4700,0,4701.0637094173,-118327662.85307
100,-700,0,707.10678118655,-17702561.920309
100,-9400,0,9400.5318998448,-236940403.6799
100,-9100,0,9100.5494339628,-231484935.89064
100,-1000,0,1004.9875621121,-25802026.725503
100,-7000,0,7000.7142492749,-180316522.08681
100,-4800,0,4801.0415536631,-122715624.17227
100,-3700,0,3701.3511046643,-93634709.090375
100,-2700,0,2701.8512172213,7233902
100,-6000,0,6000.833275471,-151886473.36007
100,-7400,0,7400.6756448314,-188337690.72482
100,-3100,0,3101.6124838542,7233902
100,-9000,0,9000.5555384098,-226244894.60125
100,-2600,0,2601.9223662515,7233902
100,-8300,0,8300.6023877789,-211124538.07627
100,-600,0,608.27625302982,-13361410.043756
100,-5400,0,5400.9258465563,-137610565.40552
100,-4100,0,4101.219330882,-103611712.17046
100,-9500,0,9500.5263012109,-241784149.97856
100,-6400,0,6400.7812023221,-161739417.82668
100,-1100,0,1104.5361017187,-27789120.710199
100,-3900,0,3901.2818406262,-99592465.862363
100,-5000,0,5000.99990002,-127431733.90904
100,-7500,0,7500.6666370397,-192425252.27189
100,-2500,0,2501.9992006394,-62564350.277648
100,-6900,0,6900.7245996344,-176535687.99061
100,-3200,0,3201.5621187164,7233902
100,-5200,0,5200.9614495783,-132394815.9306
100,-8900,0,8900.5617800227,-226244894.60125
100,-7600,0,7600.6578662639,-192425252.27189
100,-6200,0,6200.806399171,-158289003.06438
100,-1200,0,1204.1594578792,-29630521.637588
100,-500,0,509.90195135928,-13361410.043756
100,-9600,0,9600.5208192056,-247650874.01729
100,-5900,0,5900.8473967728,-148870158.89664
100,-4600,0,4601.0868281309,-118327662.85307
100,-6800,0,6800.7352543677,-172674312.71022
100,-2400,0,2402.0824298929,-60373908.877593
100,-8200,0,8200.6097334284,-206260748.15331
100,-3300,0,3301.5148038438,7233902
100,-8800,0,8800.5681634767,-226244894.60125
100,-7700,0,7700.6493232714,-196760348.62628
100,-800,0,806.22577482985,-19805416.383902
100,-1900,0,1902.629759044,-46294373.390058
100,-1300,0,1303.8404810405,-33223699.467482
100,-4200,0,4201.19030752,-106326365.84241
100,-5500,0,5500.90901579,-140298446.7888
100,-6700,0,6700.7462271004,-172674312.71022
100,-2300,0,2302.1728866443,-57523394.512953
100,-8700,0,8700.5746936625,-221244071.95549
100,-7800,0,7800.6409993026,-196760348.62628
100,-1700,0,1702.9386365926,-43219584.513519
100,-400,0,412.31056256177,-8888564.2219191
100,-9700,0,9700.5154502222,-247650874.01729
100,-1400,0,1403.5668847618,-35021762.478087
100,-3400,0,3401.470270339,7233902
100,-5100,0,5100.9802979427,-129837430.11689
100,-5700,0,5700.8771254957,-146015704.7557
100,-4900,0,4901.0203019371,-125024561.62714
100,-2200,0,2202.2715545545,-55000488.099914
100,-8400,0,8400.5952170069,-216195171.78747
100,-5800,0,5800.8620049093,-148870158.89664
100,-7900,0,7900.6328860415,-201539601.6022
100,-3800,0,3801.3155617496,-96134252.817779
100,-8600,0,8600.5813756978,-216195171.78747
100,-4500,0,4501.1109739708,-114112403.40727
100,-1500,0,1503.3296378373,-36797293.200646
100,-300,0,316.22776601684,-6591031.6526655
100,-9800,0,9800.5101908013,-247650874.01729
100,-2100,0,2102.3796041629,-52532892.336217
100,-4300,0,4301.1626335213,-109960590.35306
100,-8000,0,8000.6249755878,-206260748.15331
100,-6600,0,6600.7575322837,-168954655.64186
100,-3500,0,3501.4282800023,-88950244.934405
100,-8500,0,8500.5882149414,-216195171.78747
100,-6300,0,6300.7936008093,-161739417.82668
100,0,0,100,-306461.49316155
100,-1600,0,1603.1219541881,-40113576.884209
100,-6500,0,6500.769185258,-165335246.95103
100,-3600,0,3601.3886210738,-90690268.690541
100,-2000,0,2002.4984394501,-49292355.327132
100,-8100,0,8100.6172604315,-206260748.15331
100,-9900,0,9900.5050376231,-247650874.01729
100,-10000,0,10000.499987501,-251933570.13387
100,-5600,0,5600.8927859762,-143130885.08463
100,-200,0,223.60679774998,-4545497.7080748
200,-10000,0,10001.99980004,-251933570.13387
200,-5900,0,5903.3888572582,-148760745.01806
200,-200,0,282.84271247462,-4528539.5498788
200,-500,0,538.51648071345,-11663086.639909
200,-9600,0,9602.0831073262,-241784149.97856
200,-800,0,824.62112512353,-19704147.75395
200,-5300,0,5303.7722424704,-134900822.65174
200,-100,0,223.60679774998,-2108336.5142065
200,-1200,0,1216.5525060596,-29803853.890045
200,-7600,0,7602.6311234993,-192425252.27189
200,-4600,0,4604.3457732885,-116090367.40396
200,-6200,0,6203.2249677083,-158289003.06438
200,-5600,0,5603.5702904488,-143052934.87156
200,-6800,0,6802.940540678,-176535687.99061
200,-8100,0,8102.4687595819,-206260748.15331
200,-9900,0,9902.0199959402,-251933570.13387
200,-8900,0,8902.2469073824,-226244894.60125
200,-2000,0,2009.9751242242,-49659607.586624
200,-2400,0,2408.3189157585,-60463490.746038
200,-3600,0,3605.551275464,-90408757.571199
200,-8200,0,8202.438661764,-211124538.07627
200,-3300,0,3306.0550509633,7233902
200,-3200,0,3206.2439083763,7233902
200,-8800,0,8802.2724338662,-226244894.60125
200,-9300,0,9302.1502890461,-236940403.6799
200,-6900,0,6902.8979421689,-176535687.99061
200,-7700,0,7702.5969646607,-196760348.62628
200,-1900,0,1910.4973174543,-47956087.830795
200,-6500,0,6503.0761951556,-165335246.95103
200,-1300,0,1315.2946437966,-31726777.220223
200,-2500,0,2507.9872407969,-62741711.445095
200,-4200,0,4204.7592083257,-106754118.92495
200,-2900,0,2906.8883707497,7233902
200,-7500,0,7502.6661927611,-192425252.27189
200,-4000,0,4004.9968789002,-100818932.88188
200,-7200,0,7202.7772421476,-184273441.68555
200,-5000,0,5003.9984012787,-127477761.09394
200,-5500,0,5503.6351623268,-140218896.54738
200,-1600,0,1612.4515496597,-39580825.276378
200,-3900,0,3905.1248379533,-97636314.038137
200,-1100,0,1118.0339887499,-27931982.633432
200,-6700,0,6702.9844099476,-168954655.64186
200,-6400,0,6403.1242374328,-161739417.82668
200,-2300,0,2308.679276123,-58139369.350262
200,-9500,0,9502.1050299394,-241784149.97856
200,-8700,0,8702.2985469357,-221244071.95549
200,-7100,0,7102.8163428319,-180316522.08681
200,-1800,0,1811.0770276275,-45241181.319866
200,-1700,0,1711.7242768624,-42045703.813705
200,-4100,0,4104.8751503548,-102355420.8509
200,-6300,0,6303.1738037278,-161739417.82668
200,-400,0,447.21359549996,-9227076.172744
200,-5400,0,5403.7024344425,-137584497.87234
200,-6100,0,6103.2778078669,-155005791.05158
200,-8500,0,8502.3526156,-216195171.78747
200,-8300,0,8302.4092888751,-211124538.07627
200,-9700,0,9702.0616365801,-247650874.01729
200,-600,0,632.45553203368,-15805018.279334
200,-7800,0,7802.5636812525,-201539601.6022
200,-9000,0,9002.2219479415,-231484935.89064
200,-3000,0,3006.6592756746,7233902
200,-2600,0,2607.6809620811,7233902
200,-1400,0,1414.2135623731,-35102794.286971
200,-3100,0,3106.4449134018,7233902
200,-7400,0,7402.7022093287,-188337690.72482
200,-3400,0,3405.8772731853,7233902
200,-6000,0,6003.3324079215,-155005791.05158
200,-3500,0,3505.7096285916,-88683106.698051
200,-9200,0,9202.1736562619,-236940403.6799
200,-3700,0,3705.4014627298,-93253623.735539
200,-2700,0,2707.3972741362,7233902
200,-5100,0,5103.9200620699,-129868337.03052
200,-900,0,921.95444572929,-21734878.075881
200,-6600,0,6603.0296076877,-168954655.64186
200,0,0,200,-835061.6722253
200,-5700,0,5703.5076926397,-143052934.87156
200,-4900,0,4904.0799340957,-125037405.05899
200,-4800,0,4804.1648597857,-122764185.72586
200,-2200,0,2209.0722034375,-54495949.766536
200,-8000,0,8002.499609497,-201539601.6022
200,-5200,0,5203.8447325031,-132349087.81461
200,-4300,0,4304.6486500062,-108456753.03131
200,-2800,0,2807.1337695236,7233902
200,-7300,0,7302.7392121039,-184273441.68555
200,-5800,0,5803.4472514188,-148760745.01806
200,-8400,0,8402.38061504,-211124538.07627
200,-7900,0,7902.5312400521,-201539601.6022
200,-2100,0,2109.5023109729,-52271414.266875
200,-7000,0,7002.8565600046,-176535687.99061
200,-3800,0,3805.2595180881,-95582835.259529
200,-8600,0,8602.3252670426,-221244071.95549
200,-1000,0,1019.8039027186,-25881486.757085
200,-4700,0,4704.2533945356,-118292539.31066
200,-9100,0,9102.1975368589,-231484935.89064
200,-4500,0,4504.4422518221,-114012875.09088
200,-9800,0,9802.0406038743,-247650874.01729
200,-4400,0,4404.543109109,-112066523.30082
200,-1500,0,1513.2745950422,-37960049.051756
200,-9400,0,9402.1274188345,-241784149.97856
200,-300,0,360.5551275464,-6844344.1860931
200,-700,0,728.01098892805,-17744917.713287
300,-5900,0,5907.6221950968,-151239870.5303
300,-4400,0,4410.21541424,-113149070.15258
300,-700,0,761.57731058639,-16419924.061613
300,-300,0,424.26406871193,-6844344.1860931
300,-200,0,360.5551275464,-4528539.5498788
300,-5300,0,5308.4837759948,-134900822.65174
300,-500,0,583.09518948453,-12341891.041161
300,-9600,0,9604.6863561493,-241784149.97856
300,-7600,0,7605.9187479226,-192147877.20304
300,-9400,0,9404.7860156412,-241784149.97856
300,-1200,0,1236.9316876853,-30599257.609979
300,-8100,0,8105.5536516638,-206260748.15331
300,-1500,0,1529.7058540778,-37786365.073654
300,-10000,0,10004.498987955,-251933570.13387
300,-800,0,854.40037453175,-18890203.071258
300,-6000,0,6007.4953183502,-154388222.191
300,-4600,0,4609.7722286464,-115397246.26062
300,-9800,0,9804.590761475,-251933570.13387
300,-4500,0,4509.9889135119,-115397246.26062
300,-6200,0,6207.2538211354,-156516184.27975
300,-9100,0,9104.943712072,-231484935.89064
300,-5600,0,5608.029957124,-143052934.87156
300,-4700,0,4709.5647357266,-120566134.57877
300,-6800,0,6806.6144300967,-172904116.20818
300,-8200,0,8205.4859697644,-211124538.07627
300,-8600,0,8605.2309672664,-221244071.95549
300,-9900,0,9904.5444115315,-251933570.13387
300,-7000,0,7006.4256222413,-176359323.36791
300,-2400,0,2418.6773244896,-60531220.00769
300,-3600,0,3612.4783736377,-90247137.145612
300,-2100,0,2121.3203435596,-52091046.793861
300,-1000,0,1044.0306508911,-23709439.377586
300,-8900,0,8905.0547443573,-231484935.89064
300,-2000,0,2022.3748416157,-49960527.218538
300,-2700,0,2716.6155414412,7233902
300,-3300,0,3313.6083051562,7233902
300,-7900,0,7905.6941504209,-201539601.6022
300,0,0,300,-835061.6722253
300,-8400,0,8405.3554356731,-211124538.07627
300,-3200,0,3214.0317359976,7233902
300,-7300,0,7306.1617830431,-184264123.35226
300,-5800,0,5807.7534382926,-148760745.01806
300,-8800,0,8805.112151472,-221244071.95549
300,-100,0,316.22776601684,-835061.6722253
300,-5200,0,5208.6466572422,-132349087.81461
300,-2800,0,2816.0255680657,7233902
300,-5700,0,5707.8892771321,-145829386.89717
300,-9300,0,9304.8374515625,-236940403.6799
300,-2200,0,2220.3603311175,-54470856.42647
300,-7700,0,7705.8419397234,-195632195.15903
300,-6900,0,6906.5186599328,-176359323.36791
300,-4800,0,4809.3658625644,-120566134.57877
300,-5000,0,5008.9919145473,-127401304.13196
300,-4900,0,4909.1750834534,-124974390.72402
300,-900,0,948.68329805051,-23709439.377586
300,-6500,0,6506.919393999,-166543208.68297
300,-6600,0,6606.8146636636,-169313731.94211
300,-1300,0,1334.1664064126,-32086984.418858
300,-8000,0,8005.6230238502,-201539601.6022
300,-5100,0,5108.8159097779,-129907214.69245
300,-2500,0,2517.9356624028,-62968166.556605
300,-2900,0,2915.4759474227,7233902
300,-4200,0,4210.7006542855,-107002809.96089
300,-3500,0,3512.8336140501,-88345153.283181
300,-7500,0,7505.9976019181,-192147877.20304
300,-3400,0,3413.2096331752,7233902
300,-1600,0,1627.88205961,-39798640.589303
300,-3700,0,3712.1422386541,-93440818.009348
300,-5500,0,5508.1757415682,-140218896.54738
300,-9200,0,9204.8900047746,-231484935.89064
300,-3800,0,3811.8237105092,-95967257.527386
300,-6400,0,6407.0273918565,-161658692.38811
300,-7200,0,7206.2472896786,-184264123.35226
300,-3100,0,3114.4823004795,7233902
300,-3900,0,3911.5214431216,-98400513.568682
300,-7400,0,7406.0785845142,-188030222.40081
300,-1100,0,1140.1754250991,-28357893.687708
300,-6700,0,6706.7130548429,-169313731.94211
300,-2600,0,2617.2504656605,7233902
300,-4000,0,4011.2342240263,-101308583.69443
300,-1400,0,1431.7821063276,-34089441.424677
300,-2300,0,2319.4827009486,-58316050.155097
300,-3000,0,3014.9626863363,7233902
300,-9500,0,9504.7356617636,-241784149.97856
300,-9000,0,9004.9986118822,-231484935.89064
300,-1800,0,1824.8287590895,-44713782.982115
300,-8700,0,8705.1708771281,-221244071.95549
300,-7800,0,7805.7670987546,-201539601.6022
300,-7100,0,7106.3352017759,-184264123.35226
300,-1700,0,1726.2676501632,-42955470.894041
300,-600,0,670.82039324994,-14870016.322756
300,-6100,0,6107.372593841,-154388222.191
300,-4100,0,4110.9609582189,-102867979.93775
300,-9700,0,9704.6380664093,-247650874.01729
300,-6300,0,6307.1388124886,-161658692.38811
300,-400,0,500,-10497623.630558
300,-8500,0,8505.292469986,-221244071.95549
300,-1900,0,1923.5384061671,-47532515.242088
300,-8300,0,8305.4199171384,-211124538.07627
300,-4300,0,4310.4524124505,-108772957.5362
300,-5400,0,5408.326913196,-137584497.87234
400,-8300,0,8309.6329642169,-211925290.93994
400,-5100,0,5115.6622249715,-129907214.69245
400,-8100,0,8109.8705291762,-208716476.67553
400,-1900,0,1941.6487838948,-47391137.872373
400,-400,0,565.68542494924,-10497623.630558
400,-8500,0,8509.4065598019,-217023867.07969
400,-3900,0,3920.4591567825,-98823121.451627
400,-9700,0,9708.2439194738,-248207133.60228
400,-6300,0,6312.6856408347,-161406843.94159
400,-5500,0,5514.5262715849,-140144535.93994
400,-600,0,721.1102550928,-15780791.69426
400,-6100,0,6113.1006862312,-156516184.27975
400,-7800,0,7810.2496759067,-200396435.13696
400,-8700,0,8709.1905479212,-221325271.07814
400,-7100,0,7111.2586790244,-180242860.89671
400,-9000,0,9008.8845036442,-231474389.54812
400,-9500,0,9508.4173236139,-242277106.31632
400,-4100,0,4119.4659848092,-104260598.36172
400,-1700,0,1746.4249196573,-42393960.38429
400,-4300,0,4318.5645763378,-110170502.46077
400,-3000,0,3026.5491900843,7233902
400,-2300,0,2334.5235059858,-58286488.728882
400,-4000,0,4019.9502484484,-101625828.91662
400,-1400,0,1456.0219778561,-34628412.244853
400,-2600,0,2630.5892875932,7233902
400,-6700,0,6711.9296778199,-172904116.20818
400,-7200,0,7211.102550928,-184264123.35226
400,-7400,0,7410.8029254596,-188030222.40081
400,-1100,0,1170.469991072,-26875806.056473
400,-3100,0,3125.6999216176,7233902
400,-9200,0,9208.6915465771,-231474389.54812
400,-3800,0,3820.9946349086,-95247535.134183
400,-3700,0,3721.5588131857,-93939598.418195
400,-3500,0,3522.7829907617,-87885872.903868
400,-1600,0,1649.2422502471,-40505527.828178
400,-100,0,412.31056256177,-2555403.0357009
400,-3400,0,3423.4485537247,7233902
400,-4200,0,4219.0046219458,-105911296.68999
400,-1800,0,1843.9088914586,-44791499.08112
400,-8000,0,8009.9937578003,-200396435.13696
400,-7500,0,7510.6590922502,-192147877.20304
400,-2500,0,2531.7977802344,-63314097.230923
400,-2200,0,2236.0679774998,-55854604.641958
400,-6500,0,6512.296062066,-166543208.68297
400,-1300,0,1360.1470508735,-33355527.098834
400,-4800,0,4816.6378315169,-122398615.27085
400,-6600,0,6612.1101019266,-166543208.68297
400,-2900,0,2927.4562336609,7233902
400,-4900,0,4916.2994213127,-124974390.72402
400,-6900,0,6911.584478251,-176359323.36791
400,-900,0,984.88578017961,-22132562.217992
400,-7700,0,7710.3826104805,-195632195.15903
400,0,0,400,-835061.6722253
400,-9300,0,9308.5981758802,-237381068.19223
400,-2800,0,2828.4271247462,7233902
400,-5000,0,5015.9744815938,-127401304.13196
400,-5200,0,5215.3619241621,-132315431.01067
400,-5800,0,5813.7767414995,-145520440.30901
400,-8800,0,8809.0862182181,-221325271.07814
400,-2000,0,2039.6078054371,-49680127.581096
400,-7300,0,7310.9506905737,-184264123.35226
400,-3200,0,3224.9030993194,7233902
400,-5700,0,5714.0178508647,-145520440.30901
400,-3300,0,3324.1540277189,7233902
400,-7900,0,7910.120100226,-200396435.13696
400,-2700,0,2729.4688127912,7233902
400,-6400,0,6412.4878167526,-163792178.47392
400,-8900,0,8908.984229417,-226409494.49317
400,-1000,0,1077.0329614269,-25006714.317828
400,-9900,0,9908.0775128175,-251933570.13387
400,-2100,0,2137.7558326432,-53485963.908336
400,-8400,0,8409.5184166515,-211925290.93994
400,-8600,0,8609.2973000124,-221325271.07814
400,-4700,0,4716.9905660283,-118838308.27307
400,-800,0,894.42719099992,-20009736.598611
400,-7000,0,7011.4192571832,-180242860.89671
400,-6800,0,6811.7545463706,-172904116.20818
400,-9800,0,9808.1598681914,-251933570.13387
400,-2400,0,2433.1050121193,-61193864.564533
400,-4500,0,4517.7427992306,-113485419.24715
400,-6200,0,6212.8898268036,-156516184.27975
400,-4600,0,4617.3585522461,-116881567.55281
400,-9100,0,9108.7869664407,-231474389.54812
400,-5600,0,5614.2675390473,-142624638.86046
400,-6000,0,6013.3185513492,-151472674.31274
400,-5400,0,5414.7945482724,-137412994.61903
400,-8200,0,8209.7503007095,-211925290.93994
400,-1500,0,1552.417469626,-36738480.934129
400,-9400,0,9408.5067890713,-242277106.31632
400,-1200,0,1264.9110640674,-31198411.90927
400,-700,0,806.22577482985,-18479314.760767
400,-9600,0,9608.3297195715,-242277106.31632
400,-4400,0,4418.1444068749,-112112391.63966
400,-200,0,447.21359549996,-5671944.2251882
400,-7600,0,7610.5190361762,-192147877.20304
400,-500,0,640.31242374328,-10497623.630558
400,-5300,0,5315.0729063673,-134868730.52153
400,-300,0,500,-7598588.4800528
400,-3600,0,3622.154055255,-90533898.768226
400,-10000,0,10007.996802557,-251933570.13387
400,-5900,0,5913.543776789,-151472674.31274
500,-7700,0,7716.2166895442,-195632195.15903
500,-200,0,538.51648071345,-5671944.2251882
500,-300,0,583.09518948453,-7088728.484555
500,-5300,0,5323.5326616825,-134868730.52153
500,0,0,500,-838431.09931742
500,-500,0,707.10678118655,-11488217.965102
500,-2100,0,2158.7033144923,-53228737.841215
500,-5600,0,5622.2771187482,-142624638.86046
500,-700,0,860.23252670426,-18479314.760767
500,-7600,0,7616.4296097318,-195632195.15903
500,-1500,0,1581.1388300842,-37422802.375266
500,-9600,0,9613.0120149722,-242277106.31632
500,-3600,0,3634.5563690772,-91343870.775811
500,-9400,0,9413.288479591,-242277106.31632
500,-1200,0,1300,-29875330.492962
500,-6000,0,6020.7972893961,-154507401.6636
500,-800,0,943.39811320566,-19481498.239098
500,-8200,0,8215.2297594163,-208716476.67553
500,-8400,0,8414.8677945646,-211925290.93994
500,-5400,0,5423.0987451825,-137412994.61903
500,-5500,0,5522.6805085936,-140144535.93994
500,-2000,0,2061.5528128088,-51041982.551114
500,-9800,0,9812.7468121826,-248207133.60228
500,-4600,0,4627.0941205037,-116941357.1942
500,-9100,0,9113.7259120516,-231474389.54812
500,-4500,0,4527.6925690687,-113485419.24715
500,-6200,0,6220.1286160336,-156243471.83571
500,-4400,0,4428.3179650969,-112264712.97792
500,-2400,0,2451.5301344263,-60416920.478117
500,-6800,0,6818.3575734923,-172173613.29486
500,-9300,0,9313.4311615,-237381068.19223
500,-4700,0,4726.5209192386,-119247123.85767
500,-7000,0,7017.8344238091,-180242860.89671
500,-8600,0,8614.5226217127,-217023867.07969
500,-2900,0,2942.7877939124,7233902
500,-9900,0,9912.618221237,-248207133.60228
500,-7300,0,7317.1032519707,-188030222.40081
500,-8900,0,8914.0338792266,-226409494.49317
500,-1000,0,1118.0339887499,-23775104.740759
500,-3300,0,3337.6638536557,7233902
500,-5700,0,5721.887800368,-145520440.30901
500,-6500,0,6519.2024052026,-166543208.68297
500,-5900,0,5921.148537235,-148614381.54438
500,-2700,0,2745.9060435492,7233902
500,-7900,0,7915.8069708653,-200396435.13696
500,-3200,0,3238.8269481403,7233902
500,-5200,0,5223.9831546436,-132315431.01067
500,-100,0,509.90195135928,-838431.09931742
500,-8800,0,8814.1930997681,-226409494.49317
500,-5000,0,5024.9378105604,-127030481.50499
500,-5800,0,5821.5118311312,-148614381.54438
500,-6400,0,6419.5015382816,-161406843.94159
500,-2800,0,2844.2925306656,7233902
500,-4900,0,4925.4441424099,-124337336.22825
500,-4800,0,4825.9714048055,-124337336.22825
500,-6900,0,6918.0922225712,-172904116.20818
500,-900,0,1029.5630140987,-23775104.740759
500,-3400,0,3436.5680554879,7233902
500,-1600,0,1676.305461424,-40213183.932028
500,-2200,0,2256.1028345357,-55585858.757089
500,-1300,0,1392.8388277184,-34094800.1123
500,-6600,0,6618.9122973492,-168396156.37914
500,-7200,0,7217.3402303065,-184264123.35226
500,-2500,0,2549.5097567964,-62821380.473328
500,-3700,0,3733.6309405189,-94446297.362098
500,-3800,0,3832.7535793474,-95605344.350011
500,-1800,0,1868.1541692269,-44846662.225666
500,-3100,0,3140.0636936215,7233902
500,-7500,0,7516.6481891865,-188030222.40081
500,-4300,0,4328.9721643827,-110383189.38935
500,-4200,0,4229.6571965113,-106283016.52293
500,-8000,0,8015.6097709407,-203813478.58635
500,-3500,0,3535.5339059327,-88221825.70817
500,-4000,0,4031.1288741493,-100269047.05788
500,-7400,0,7416.8726563155,-188030222.40081
500,-3000,0,3041.3812651491,7233902
500,-2300,0,2353.720459188,-58300699.79117
500,-2600,0,2647.6404589747,7233902
500,-1400,0,1486.6068747319,-36226184.907391
500,-1100,0,1208.3045973595,-27672207.551883
500,-7100,0,7117.5838597097,-180242860.89671
500,-1900,0,1964.6882704388,-48567161.412525
500,-6700,0,6718.6308128963,-172173613.29486
500,-1700,0,1772.0045146669,-43200394.833988
500,-9000,0,9013.87818866,-231474389.54812
500,-4100,0,4130.3752856127,-104507321.94768
500,-9200,0,9213.57693841,-237381068.19223
500,-6300,0,6319.81012373,-160314064.89826
500,-7800,0,7816.0092118677,-200396435.13696
500,-9500,0,9513.1487952202,-242277106.31632
500,-8100,0,8115.4174261094,-208716476.67553
500,-600,0,781.02496759067,-14183203.810664
500,-8700,0,8714.3559716137,-221325271.07814
500,-8300,0,8315.046602395,-211925290.93994
500,-8500,0,8514.6931829632,-217023867.07969
500,-6100,0,6120.4574992397,-154507401.6636
500,-3900,0,3931.9206502675,-98852608.899455
500,-400,0,640.31242374328,-9880785.5463228
500,-9700,0,9712.8780492705,-248207133.60228
500,-10000,0,10012.49219725,-251933570.13387
500,-5100,0,5124.4511901276,-129186789.63994
600,-5100,0,5135.1728305871,-129186789.63994
600,-8500,0,8521.1501571091,-217023867.07969
600,-10000,0,10017.983829095,-251217638.52836
600,-9700,0,9718.5389848475,-248207133.60228
600,-400,0,721.1102550928,-9880785.5463228
600,-8700,0,8720.6651122492,-221325271.07814
600,-600,0,848.52813742386,-15215015.284472
600,-6100,0,6129.4371682888,-156243471.83571
600,-9200,0,9219.5444572929,-237381068.19223
600,-3700,0,3748.3329627983,-94692824.698153
600,-9500,0,9518.9285111298,-242277106.31632
600,-7800,0,7823.0428862432,-203813478.58635
600,-6300,0,6328.5069329187,-160314064.89826
600,-4100,0,4143.6698710201,-104120786.31494
600,-9000,0,9019.9778270237,-226409494.49317
600,-8000,0,8022.4684480526,-203813478.58635
600,-6700,0,6726.8120235369,-172173613.29486
600,-1100,0,1252.9964086142,-26954548.637276
600,-3900,0,3945.8839313898,-99522637.819144
600,-1400,0,1523.1546211728,-35798978.939812
600,-7100,0,7125.3070109294,-179142990.91015
600,-2600,0,2668.3328128253,-64849320.548541
600,-2300,0,2376.9728648009,-58217201.778491
600,-3000,0,3059.4117081557,7233902
600,-3500,0,3551.0561809129,-87720891.173125
600,-7400,0,7424.2844773082,-189175872.91719
600,-4000,0,4044.7496832313,-102449490.68815
600,-1700,0,1802.775637732,-43084102.755372
600,-8100,0,8122.1918224085,-203813478.58635
600,-4200,0,4242.6406871193,-107333117.22306
600,-3100,0,3157.5306807694,7233902
600,-7500,0,7523.9617223907,-189175872.91719
600,-4300,0,4341.6586692185,-108954370.00512
600,-3800,0,3847.0768123343,-97056318.868106
600,-7200,0,7224.9567472754,-179142990.91015
600,-2500,0,2570.9920264365,-63230484.262864
600,-1300,0,1431.7821063276,-32816424.660196
600,-2200,0,2280.3508501983,-55383373.987077
600,-9900,0,9918.1651528899,-251217638.52836
600,-1900,0,1992.4858845171,-48189024.217368
600,-100,0,608.27625302982,-2609843.1645822
600,-3400,0,3452.5353003264,-85945215.032366
600,-6600,0,6627.2166103124,-168396156.37914
600,-6900,0,6926.0378283691,-174674726.67921
600,-4800,0,4837.3546489791,-123472436.77911
600,-7700,0,7723.3412458599,-193882082.25564
600,-900,0,1081.6653826392,-22052077.183574
600,-1600,0,1708.8007490635,-39076829.93328
600,-4900,0,4936.598018879,-123472436.77911
600,-1800,0,1897.366596101,-46391997.324974
600,-2800,0,2863.5642126553,7233902
600,-6400,0,6428.0634719953,-162648115.79684
600,-5800,0,5830.9518948453,-148070635.30795
600,-5900,0,5930.4300012731,-148070635.30795
600,-3300,0,3354.1019662497,7233902
600,-5200,0,5234.500931321,-131965256.73418
600,-5700,0,5731.4919523628,-144837939.50463
600,-3200,0,3255.7641192199,7233902
600,-7900,0,7922.7520471109,-203813478.58635
600,-6500,0,6527.633568147,-166710368.55123
600,-2700,0,2765.8633371879,7233902
600,-5000,0,5035.8713248057,-129186789.63994
600,-5600,0,5632.0511361315,-142507495.21632
600,-1000,0,1166.1903789691,-26954548.637276
600,-8900,0,8920.2017914395,-226409494.49317
600,-5500,0,5532.6304774492,-139772730.80147
600,-8800,0,8820.43082848,-226409494.49317
600,-7300,0,7324.616030892,-189175872.91719
600,-8600,0,8620.9048249009,-217023867.07969
600,-2900,0,2961.4185789922,7233902
600,-4700,0,4738.1430961929,-120818187.11773
600,-8300,0,8321.6584885466,-208716476.67553
600,-7000,0,7025.6672281001,-179142990.91015
600,-9300,0,9319.3347402054,-237381068.19223
600,-9800,0,9818.3501669069,-248207133.60228
600,-4400,0,4440.7206622349,-113545208.82144
600,-2400,0,2473.8633753706,-60161450.074796
600,-4500,0,4539.8237851265,-113545208.82144
600,-6200,0,6228.964600959,-156243471.83571
600,-3600,0,3649.6575181789,-91549202.124617
600,-4600,0,4638.9654018973,-115775037.00198
600,-9100,0,9119.7587687394,-231474389.54812
600,-2000,0,2088.0613017821,-50795319.594576
600,-5400,0,5433.2310828825,-137296637.31594
600,-800,0,1000,-19481498.239098
600,-9600,0,9618.7317251288,-248207133.60228
600,-700,0,921.95444572929,-17819289.337559
600,-9400,0,9419.1294714533,-237381068.19223
600,-1200,0,1341.6407864999,-29255248.105228
600,-8200,0,8221.9219164378,-208716476.67553
600,-1500,0,1615.5494421404,-37007241.70251
600,-7600,0,7623.6474210184,-193882082.25564
600,-500,0,781.02496759067,-10960203.705445
600,-6000,0,6029.9253726725,-156243471.83571
600,-2100,0,2184.0329667842,-53867922.84169
600,-8400,0,8421.4013085709,-216493687.10662
600,0,0,600,-838431.09931742
600,-5300,0,5333.8541412378,-134346652.19433
600,-6800,0,6826.4192663504,-174674726.67921
600,-300,0,670.82039324994,-7088728.484555
600,-200,0,632.45553203368,-5604030.3623592
700,-5300,0,5346.0265618495,-134346652.19433
700,-7300,0,7333.4848469196,-186513331.68461
700,-2100,0,2213.5943621179,-53810036.962015
700,-6000,0,6040.6953242156,-154527876.5803
700,-300,0,761.57731058639,-6945355.0289402
700,-1500,0,1655.2945357247,-38887974.59678
700,-9400,0,9426.0277954184,-237381068.19223
700,-700,0,989.94949366117,-18805741.933858
700,-8400,0,8429.1162051546,-216493687.10662
700,-9100,0,9126.8833672837,-231177493.06071
700,-4500,0,4554.1190146943,-113646676.43258
700,-9800,0,9824.9681933327,-251217638.52836
700,-7000,0,7034.9129347846,-179142990.91015
700,-3600,0,3667.4241641784,-91992697.024015
700,-4700,0,4751.8417482067,-119643598.74827
700,-4400,0,4455.3338819891,-112352013.50399
700,-8600,0,8628.4413424442,-216493687.10662
700,-7900,0,7930.9520235593,-201457140.796
700,-5500,0,5544.3665102516,-139772730.80147
700,-5700,0,5742.8216061445,-144837939.50463
700,-1000,0,1220.6555615734,-25410869.60171
700,-5600,0,5643.580423809,-143792804.67172
700,-2700,0,2789.2651361963,7233902
700,-5200,0,5246.903848938,-133337034.55577
700,-6600,0,6637.017402418,-166710368.55123
700,-5800,0,5842.0886675914,-148070635.30795
700,-4900,0,4949.7474683058,-125247820.67402
700,-2800,0,2886.1739379324,7233902
700,-900,0,1140.1754250991,-22961718.306134
700,-1900,0,2024.8456731317,-48962393.54567
700,-4800,0,4850.773134254,-121166276.28328
700,-3400,0,3471.310991542,-85216015.347927
700,-3900,0,3962.3225512318,-99804617.938089
700,-8100,0,8130.1906496711,-203813478.58635
700,-3800,0,3863.9358172723,-96886713.259168
700,-3100,0,3178.0497164141,7233902
700,-3000,0,3080.5843601499,7233902
700,-2200,0,2308.679276123,-55222572.510969
700,-1400,0,1565.2475842499,-35798978.939812
700,-7400,0,7433.0343736593,-189175872.91719
700,0,0,700,-985014.67125888
700,-2600,0,2692.5824035673,-65580072.91777
700,-3500,0,3569.3136595149,-88415141.977914
700,-9000,0,9027.181176868,-226195508.0588
700,-8000,0,8030.5666051655,-201457140.796
700,-8500,0,8528.7748240882,-216493687.10662
700,-7800,0,7831.3472659562,-201457140.796
700,-3700,0,3765.6340767525,-95124696.932305
700,-9200,0,9226.5920035515,-237276438.82585
700,-6100,0,6140.0325732035,-154527876.5803
700,-600,0,921.95444572929,-13533300.605454
700,-9700,0,9725.2249331314,-251217638.52836
700,-5100,0,5147.8150704935,-129984474.94707
700,-400,0,806.22577482985,-9440224.374268
700,-8700,0,8728.1154896117,-220721375.99231
700,-9500,0,9525.7545632879,-237381068.19223
700,-100,0,707.10678118655,-985014.67125888
700,-9900,0,9924.7166206396,-251217638.52836
700,-4200,0,4257.9337712088,-106827767.83733
700,-6300,0,6338.7695966962,-162648115.79684
700,-6700,0,6736.4679172397,-169074512.48977
700,-1100,0,1303.8404810405,-28620008.857717
700,-7100,0,7134.4235926948,-181798620.68433
700,-4000,0,4060.7881008494,-102312581.9845
700,-2300,0,2404.1630560343,-58243049.685707
700,-4100,0,4159.3268686171,-105528853.16391
700,-1700,0,1838.477631085,-42613638.114601
700,-7500,0,7532.5958341066,-189175872.91719
700,-7200,0,7233.9477465627,-181798620.68433
700,-2500,0,2596.1509971494,-63773201.031368
700,-1300,0,1476.4823060233,-32310023.740646
700,-4300,0,4356.6041821584,-110109267.20491
700,-7700,0,7731.7527120311,-196366036.06971
700,-5900,0,5941.3803110052,-150711731.69444
700,-6900,0,6935.4163537599,-174674726.67921
700,-6400,0,6438.1674411279,-162648115.79684
700,-3300,0,3373.4255586866,7233902
700,-6500,0,6537.5836514725,-166710368.55123
700,-3200,0,3275.6678708318,7233902
700,-8900,0,8927.4856482663,-226195508.0588
700,-8800,0,8827.7970071814,-226195508.0588
700,-6200,0,6239.3909959226,-154527876.5803
700,-5000,0,5048.7622245457,-128144029.94215
700,-2900,0,2983.2867780353,7233902
700,-800,0,1063.0145812735,-18805741.933858
700,-9300,0,9326.3068789312,-237276438.82585
700,-4600,0,4652.9560496527,-117159147.95992
700,-8300,0,8329.4657691835,-211649679.53452
700,-1600,0,1746.4249196573,-39896536.608229
700,-2000,0,2118.9620100417,-50810501.119792
700,-2400,0,2500,-61638435.727968
700,-5400,0,5445.1813560248,-137296637.31594
700,-1800,0,1931.3207915828,-45682354.943888
700,-9600,0,9625.4870006665,-248207133.60228
700,-1200,0,1389.244398945,-30077271.081515
700,-500,0,860.23252670426,-13533300.605454
700,-10000,0,10024.470060806,-251217638.52836
700,-200,0,728.01098892805,-5604030.3623592
700,-6800,0,6835.934464285,-174674726.67921
700,-8200,0,8229.823813424,-211649679.53452
700,-7600,0,7632.1687612369,-193882082.25564
800,-5300,0,5360.037313303,-135259914.15136
800,-9500,0,9533.6247041721,-241396313.91961
800,-100,0,806.22577482985,-2944104.0617265
800,-1100,0,1360.1470508735,-28620008.857717
800,-4100,0,4177.3197148411,-103941293.18366
800,-600,0,1000,-14531478.617981
800,-5600,0,5656.8542494924,-143792804.67172
800,-9300,0,9334.3451832467,-237276438.82585
800,-800,0,1131.3708498985,-22311202.045569
800,-7500,0,7542.5459892532,-188916002.97075
800,-9000,0,9035.4855984612,-231177493.06071
800,-4400,0,4472.1359549996,-112596797.7189
800,-3700,0,3785.4986461495,-95647592.903845
800,-2500,0,2624.8809496813,-64001005.678527
800,-5900,0,5953.9902586417,-150711731.69444
800,-5000,0,5063.5955604689,-128576313.63787
800,-6900,0,6946.2219947249,-173154130.92813
800,-8300,0,8338.4650865732,-211649679.53452
800,-3200,0,3298.4845004941,7233902
800,-8900,0,8935.882720806,-226195508.0588
800,-2900,0,3008.3217912983,7233902
800,-2600,0,2720.2941017471,-66963217.188625
800,-4600,0,4669.0470119715,-117304552.53357
800,-1200,0,1442.2205101856,-29517092.179599
800,-500,0,943.39811320566,-12744907.963239
800,-10000,0,10031.948963188,-251217638.52836
800,-1800,0,1969.7715603592,-47291377.013904
800,-7600,0,7641.9892698171,-196366036.06971
800,-6800,0,6846.8971074495,-173154130.92813
800,-9600,0,9633.2756630338,-247549786.25944
800,0,0,800,-985014.67125888
800,-5400,0,5458.9376255825,-138643804.94753
800,-7400,0,7443.1176263714,-186513331.68461
800,-3100,0,3201.5621187164,7233902
800,-8200,0,8238.9319696184,-209734551.08995
800,-2400,0,2529.8221281347,-61764428.862955
800,-6400,0,6449.8061986388,-160829197.35028
800,-4800,0,4866.2100242386,-121166276.28328
800,-3900,0,3981.2058474789,-100151802.20382
800,-6200,0,6251.3998432351,-156848656.59237
800,-1700,0,1878.8294228056,-44224739.96043
800,-2700,0,2816.0255680657,-67704392.107465
800,-1900,0,2061.5528128088,-47205520.579483
800,-8800,0,8836.2888137498,-226195508.0588
800,-3300,0,3395.5853692699,-83842394.598847
800,-7200,0,7244.3081105099,-181798620.68433
800,-7700,0,7741.4468931848,-196366036.06971
800,-1000,0,1280.6248474866,-24744388.931315
800,-1300,0,1526.4337522474,-33197197.868014
800,-7000,0,7045.5659815234,-181798620.68433
800,-3600,0,3687.8177829172,-92428631.324431
800,-8400,0,8438.0092438916,-211649679.53452
800,-5800,0,5854.9124673218,-149106460.99611
800,-5100,0,5162.3637996561,-129984474.94707
800,-2300,0,2435.1591323772,-59544493.645117
800,-6700,0,6747.5921631349,-169074512.48977
800,-8100,0,8139.4102980499,-204439804.81752
800,-4200,0,4275.5116652864,-106827767.83733
800,-8700,0,8736.7041840731,-220721375.99231
800,-9100,0,9135.0971532874,-231177493.06071
800,-7100,0,7144.9282711585,-181798620.68433
800,-4000,0,4079.2156108742,-102846019.80815
800,-400,0,894.42719099992,-10342078.894855
800,-9700,0,9732.9337817536,-251217638.52836
800,-7800,0,7840.9183135651,-196366036.06971
800,-9900,0,9932.2706366671,-251217638.52836
800,-200,0,824.62112512353,-5838891.6194181
800,-9400,0,9433.9811320566,-237276438.82585
800,-5200,0,5261.1785751864,-133337034.55577
800,-2000,0,2154.0659228538,-51085928.765303
800,-6000,0,6053.0983801686,-154527876.5803
800,-1400,0,1612.4515496597,-35501802.669982
800,-2200,0,2340.9399821439,-56054100.918708
800,-3800,0,3883.2975677895,-97378565.41842
800,-1600,0,1788.8543819998,-39934875.791262
800,-6500,0,6549.0457320132,-169074512.48977
800,-7300,0,7343.7047870949,-186513331.68461
800,-3400,0,3492.8498393146,-87924262.916719
800,-4900,0,4964.8766349226,-123925802.21818
800,-7900,0,7940.4030124421,-201457140.796
800,-4300,0,4373.7855457258,-109017949.86801
800,-700,0,1063.0145812735,-17137818.289331
800,-8600,0,8637.1291526757,-220721375.99231
800,-9200,0,9234.7171044922,-237276438.82585
800,-6100,0,6152.2353661088,-156848656.59237
800,-4500,0,4570.5579528106,-113646676.43258
800,-300,0,854.40037453175,-5838891.6194181
800,-1500,0,1700,-38887974.59678
800,-2800,0,2912.0439557122,7233902
800,-6300,0,6350.590523723,-160829197.35028
800,-3000,0,3104.834939252,7233902
800,-2100,0,2247.2205054244,-53708088.990804
800,-9800,0,9832.5988426255,-251217638.52836
800,-8500,0,8537.5640553966,-216493687.10662
800,-5500,0,5557.8772926361,-140526367.98382
800,-900,0,1204.1594578792,-22311202.045569
800,-5700,0,5755.8665724633,-145490752.96899
800,-8000,0,8039.9004968967,-201457140.796
800,-6600,0,6648.3080554379,-169074512.48977
800,-3500,0,3590.2646142032,-89736333.341773
800,-4700,0,4767.5989764241,-119831230.34516
900,-3500,0,3613.8621999185,-91357836.808125
900,-3000,0,3132.0919526732,7233902
900,-5300,0,5375.8720222862,-135259914.15136
900,-4700,0,4785.3944456022,-121161505.80835
900,-10000,0,10040.418317979,-251217638.52836
900,-8000,0,8050.4658250315,-204439804.81752
900,-5700,0,5770.6152185014,-145490752.96899
900,-100,0,905.53851381374,-1301566.0190311
900,-5900,0,5968.2493245507,-149106460.99611
900,-900,0,1272.7922061358,-20668531.250801
900,-1100,0,1421.2670403552,-28054924.624628
900,-5600,0,5671.8603649949,-143820429.27572
900,-5500,0,5573.1499172371,-138643804.94753
900,-8500,0,8547.5142585432,-220721375.99231
900,-600,0,1081.6653826392,-13779185.022505
900,-9800,0,9841.2397592986,-247549786.25944
900,-4100,0,4197.6183723631,-103941293.18366
900,-6600,0,6661.0809933524,-167142005.03243
900,-800,0,1204.1594578792,-20668531.250801
900,-7500,0,7553.8069872085,-188916002.97075
900,-9000,0,9044.8880590088,-231177493.06071
900,-2800,0,2941.0882339705,7233902
900,-6300,0,6363.9610306789,-160829197.35028
900,-2100,0,2284.7319317592,-53560257.138577
900,-2500,0,2657.0660511173,-64830645.09277
900,-3700,0,3807.886552932,-95957388.367277
900,-1500,0,1749.2855684536,-38472896.756242
900,-6900,0,6958.4481028459,-175500948.22175
900,-5000,0,5080.3543183522,-128576313.63787
900,-300,0,948.68329805051,-7980277.2779368
900,-8900,0,8945.3898741195,-226195508.0588
900,-2900,0,3036.4452901378,7233902
900,-6100,0,6166.0360037872,-155061777.82985
900,-3200,0,3324.1540277189,7233902
900,-4500,0,4589.1175622335,-113861027.41157
900,-9300,0,9343.4469014385,-237276438.82585
900,-9200,0,9243.9169187093,-231177493.06071
900,-8600,0,8646.964785403,-220721375.99231
900,-2600,0,2751.3632984395,-67101866.350198
900,-4600,0,4687.2166581032,-116203954.40506
900,-7900,0,7951.1005527537,-204439804.81752
900,-8300,0,8348.6525858967,-209734551.08995
900,-700,0,1140.1754250991,-18118831.879709
900,-1200,0,1500,-29517092.179599
900,-4300,0,4393.1765272978,-109363688.58761
900,-500,0,1029.5630140987,-12744907.963239
900,-3400,0,3517.1010790138,-87622184.726248
900,-1800,0,2012.4611797498,-45740822.622681
900,-4900,0,4981.9674828325,-125543954.58858
900,-7600,0,7653.103945459,-193955171.38081
900,-6800,0,6859.300255857,-173154130.92813
900,-9500,0,9542.5363504678,-241396313.91961
900,-9600,0,9642.0952079929,-247549786.25944
900,-4400,0,4491.1023145771,-112596797.7189
900,-5200,0,5277.3099207835,-133710250.62811
900,-6500,0,6562.0118866092,-167142005.03243
900,-7300,0,7355.2702193733,-188916002.97075
900,-7400,0,7454.5288248152,-188916002.97075
900,-1600,0,1835.7559750686,-41738914.005357
900,-5400,0,5474.4862772684,-138643804.94753
900,-2200,0,2376.9728648009,-57232000.82052
900,-3100,0,3228.0024783138,7233902
900,-8200,0,8249.2423894561,-209734551.08995
900,-1400,0,1664.3316977093,-36410865.453922
900,-2400,0,2563.2011235953,-61369025.022904
900,-6000,0,6067.124524847,-151178877.71659
900,-2000,0,2193.1712199461,-51012589.696892
900,-4800,0,4883.6461788299,-121161505.80835
900,-3800,0,3905.1248379533,-97728097.172145
900,-200,0,921.95444572929,-2944104.0617265
900,-9400,0,9442.9868156214,-241396313.91961
900,-6400,0,6462.9714528226,-162995688.50393
900,-3900,0,4002.4992192379,-101161795.16189
900,-1700,0,1923.5384061671,-42591824.448601
900,-7800,0,7851.7513969814,-196366036.06971
900,-9900,0,9940.8249154685,-251217638.52836
900,-6200,0,6264.9820430708,-156848656.59237
900,-9700,0,9741.663102366,-247549786.25944
900,-2700,0,2846.0498941515,-70368327.215978
900,-4000,0,4100,-103178574.21171
900,-8800,0,8845.9030064771,-226195508.0588
900,-9100,0,9144.3971917235,-231177493.06071
900,-7100,0,7156.8149340332,-179670733.75001
900,-400,0,984.88578017961,-7980277.2779368
900,-1900,0,2102.3796041629,-48386415.58892
900,-3300,0,3420.5262752974,-86872420.055511
900,-8700,0,8746.427842268,-220721375.99231
900,-7200,0,7256.0319734687,-181798620.68433
900,-7700,0,7752.4189773257,-193955171.38081
900,-4200,0,4295.3463189829,-107146468.59251
900,-1000,0,1345.3624047074,-25701811.929558
900,-8100,0,8149.8466243237,-204439804.81752
900,-6700,0,6760.1775124622,-169074512.48977
900,-1300,0,1581.1388300842,-32713826.101919
900,-5800,0,5869.4122363317,-149106460.99611
900,-2300,0,2469.8178070457,-59278383.563254
900,0,0,900,-1301566.0190311
900,-3600,0,3710.7950630559,-93012649.028661
900,-7000,0,7057.6199954376,-179670733.75001
900,-5100,0,5178.8029504896,-128576313.63787
900,-8400,0,8448.0767041972,-209734551.08995
1000,-5100,0,5197.1145840745,-130428508.40361
1000,-8400,0,8459.3143930226,-212881503.67533
1000,-2300,0,2507.9872407969,-59223189.694529
1000,-8100,0,8161.4949610963,-204439804.81752
1000,-5800,0,5885.5755878249,-149351501.60538
1000,-1300,0,1640.1219466857,-32713826.101919
1000,-6700,0,6774.215821776,-168623319.15547
1000,-3600,0,3736.3083384539,-93490284.724766
1000,-7200,0,7269.1127381545,-181449058.18612
1000,-9900,0,9950.3768772846,-247549786.25944
1000,-1000,0,1414.2135623731,-24156004.229316
1000,-4200,0,4317.4066289846,-106304847.82072
1000,-8700,0,8757.2826835726,-218890095.11018
1000,-3300,0,3448.1879299133,-86717411.05401
1000,-7100,0,7170.0767080973,-181449058.18612
1000,-1900,0,2147.0910553584,-48246932.498194
1000,-400,0,1077.0329614269,-8351828.3109818
1000,-9100,0,9154.7801721287,-232124497.47082
1000,-8800,0,8856.6359301938,-220721375.99231
1000,-6200,0,6280.127387243,-157179725.28798
1000,-2700,0,2879.2360097776,-70682690.561046
1000,-4000,0,4123.1056256177,-103377812.55179
1000,-6400,0,6477.6538962807,-162995688.50393
1000,-9700,0,9751.4101544341,-247549786.25944
1000,-7800,0,7863.841300535,-196661283.9951
1000,-3900,0,4026.1644278395,-100337076.83057
1000,-3800,0,3929.3765408777,-97829686.184033
1000,-1700,0,1972.3082923316,-44395760.698458
1000,-9400,0,9453.0418384772,-241396313.91961
1000,-200,0,1019.8039027186,-2977824.1673439
1000,-4800,0,4903.0602688525,-123958398.33905
1000,-6000,0,6082.7625302982,-151178877.71659
1000,-2000,0,2236.0679774998,-50782887.17968
1000,-2400,0,2600,-62471098.031969
1000,-1400,0,1720.4650534085,-35840280.374463
1000,-2200,0,2416.6091947189,-58119451.966591
1000,-3100,0,3257.2994949805,-86263059.651721
1000,-5400,0,5491.8120870984,-138882863.20849
1000,-1600,0,1886.7962264113,-41226172.346615
1000,-8200,0,8260.7505712254,-209734551.08995
1000,-7300,0,7368.1748079155,-185959419.21189
1000,-7400,0,7467.2618810378,-188916002.97075
1000,-4400,0,4512.2056690714,-112921786.77997
1000,-9600,0,9651.9428096109,-247549786.25944
1000,-6500,0,6576.473218983,-167142005.03243
1000,-5300,0,5393.5146240647,-133710250.62811
1000,-5600,0,5688.5850613312,-143820429.27572
1000,-1800,0,2059.1260281974,-45346172.55304
1000,-4300,0,4414.7480109288,-110566296.29068
1000,-6800,0,6873.1361109758,-174789200.99044
1000,-7600,0,7665.5071586947,-193955171.38081
1000,-5200,0,5295.2809179495,-133710250.62811
1000,-4900,0,5000.99990002,-123958398.33905
1000,-5000,0,5099.0195135928,-128739739.18006
1000,-8300,0,8360.0239234107,-212881503.67533
1000,-3400,0,3544.0090293339,-88104670.554397
1000,-500,0,1118.0339887499,-11492720.99528
1000,-1200,0,1562.0499351813,-31288907.450446
1000,-9200,0,9254.1882410074,-232124497.47082
1000,-700,0,1220.6555615734,-17427131.437485
1000,-9300,0,9353.6089291781,-238260871.2374
1000,-7900,0,7963.0396206474,-202013889.67373
1000,-4600,0,4707.4409183759,-117360146.96352
1000,-2600,0,2785.6776554368,-68562478.36333
1000,-8600,0,8657.9443287653,-218890095.11018
1000,-4500,0,4609.7722286464,-112921786.77997
1000,-3200,0,3352.610922848,-84631883.90177
1000,-7000,0,7071.0678118655,-179670733.75001
1000,0,0,1000,-1301566.0190311
1000,-300,0,1044.0306508911,-8351828.3109818
1000,-8900,0,8956.003573023,-231177493.06071
1000,-2900,0,3067.5723300356,-80710738.257454
1000,-6100,0,6181.4237842102,-155061777.82985
1000,-3700,0,3832.7535793474,-96110377.727293
1000,-6300,0,6378.8713735268,-161095534.27606
1000,-6900,0,6972.0872054213,-175500948.22175
1000,-1500,0,1802.775637732,-39282633.074101
1000,-2100,0,2325.9406699226,-53391306.055389
1000,-2500,0,2692.5824035673,-65278937.221651
1000,-9000,0,9055.3851381374,-232124497.47082
1000,-2800,0,2973.2137494637,-74431049.210371
1000,-800,0,1280.6248474866,-19984771.373803
1000,-7500,0,7566.3729752108,-188916002.97075
1000,-8000,0,8062.2577482985,-204439804.81752
1000,-6600,0,6675.3277073115,-167142005.03243
1000,-4100,0,4220.1895692018,-104165504.15687
1000,-3500,0,3640.0549446403,-91794654.317987
1000,-600,0,1166.1903789691,-16437576.034005
1000,-9800,0,9850.8882848198,-247549786.25944
1000,-5500,0,5590.1699437495,-140361532.79667
1000,-10000,0,10049.875621121,-251217638.52836
1000,-100,0,1004.9875621121,-1301566.0190311
1000,-1100,0,1486.6068747319,-29023929.298202
1000,-900,0,1345.3624047074,-21665614.229537
1000,-5900,0,5984.1457201509,-151178877.71659
1000,-8500,0,8558.6213843118,-218890095.11018
1000,-5700,0,5787.0545184921,-143820429.27572
1000,-9500,0,9552.4865872714,-241396313.91961
1000,-4700,0,4805.2055106936,-119734904.40452
1000,-3000,0,3162.2776601684,-85848803.612038
1000,-7700,0,7764.6635471217,-193955171.38081
1100,-5700,0,5805.17010948,-145663206.99466
1100,-9500,0,9563.4721728042,-241396313.91961
1100,-300,0,1140.1754250991,-6034728.324906
1100,-1500,0,1860.1075237738,-38882956.608292
1100,-7000,0,7085.9014952227,-178474174.5769
1100,-4500,0,4632.4939287602,-114276540.53629
1100,-2100,0,2370.6539182259,-54624738.327251
1100,-2800,0,3008.3217912983,-74263335.586423
1100,-100,0,1104.5361017187,-2977824.1673439
1100,-5900,0,6001.6664352495,-149351501.60538
1100,-8600,0,8670.0634369075,-218890095.11018
1100,-1100,0,1555.6349186104,-27557888.68423
1100,-6600,0,6691.038783328,-168623319.15547
1100,-9800,0,9861.541461658,-247549786.25944
1100,-7900,0,7976.2146410437,-202013889.67373
1100,-700,0,1303.8404810405,-17427131.437485
1100,-3400,0,3573.5136770411,-88050258.922208
1100,-900,0,1421.2670403552,-23595458.238308
1100,-6100,0,6198.3868869247,-157179725.28798
1100,-5500,0,5608.9214649521,-138882863.20849
1100,-600,0,1252.9964086142,-15509667.005373
1100,-4900,0,5021.9518117959,-125406376.13806
1100,-4100,0,4244.9970553582,-104204380.22396
1100,-5200,0,5315.0729063673,-135623093.07618
1100,-5300,0,5412.9474410897,-135623093.07618
1100,-7300,0,7382.4115301167,-185959419.21189
1100,-2200,0,2459.6747752498,-57914019.647206
1100,-3000,0,3195.3090617341,-80371499.254265
1100,-800,0,1360.1470508735,-19984771.373803
1100,-4700,0,4827.0073544589,-120516755.79951
1100,-1400,0,1780.4493814765,-34441170.680186
1100,-10000,0,10060.318086423,-251295541.32729
1100,-3800,0,3956.0080889705,-98391882.167494
1100,-7500,0,7580.2374632989,-188916002.97075
1100,-8500,0,8570.8809348864,-218890095.11018
1100,-7800,0,7877.1822373232,-196661283.9951
1100,-3500,0,3668.7872655688,-89983202.520294
1100,-9700,0,9762.1718894926,-247549786.25944
1100,-3700,0,3860.0518131238,-95907578.844909
1100,-9100,0,9166.2424144248,-232124497.47082
1100,-9400,0,9464.1428560647,-238260871.2374
1100,-400,0,1170.469991072,-12447240.961787
1100,-8000,0,8075.270893289,-202013889.67373
1100,-9300,0,9364.8278147545,-238260871.2374
1100,-8700,0,8769.2645073575,-218890095.11018
1100,-8300,0,8372.5742755738,-212881503.67533
1100,-9200,0,9265.5275079188,-232124497.47082
1100,-4200,0,4341.6586692185,-107305855.39137
1100,-4300,0,4438.4682042344,-109636661.85174
1100,-6500,0,6592.4198895398,-168623319.15547
1100,-6300,0,6395.3107821278,-161095534.27606
1100,-6700,0,6789.6980787072,-171972542.18254
1100,-1800,0,2109.5023109729,-46625618.879353
1100,-2300,0,2549.5097567964,-59070143.682186
1100,-1600,0,1941.6487838948,-40866479.681093
1100,-5100,0,5217.2789842982,-128739739.18006
1100,-2500,0,2731.3000567495,-65223734.913467
1100,-9000,0,9066.9730340395,-232124497.47082
1100,-5800,0,5903.3888572582,-149351501.60538
1100,-2000,0,2282.5424421027,-52282991.903401
1100,-7700,0,7778.174593052,-196661283.9951
1100,0,0,1100,-1162622.9232378
1100,-1300,0,1702.9386365926,-32261272.256741
1100,-200,0,1118.0339887499,-6034728.324906
1100,-6900,0,6987.1310278254,-174789200.99044
1100,-4000,0,4148.4937025383,-103377812.55179
1100,-1000,0,1486.6068747319,-25176330.476722
1100,-7100,0,7184.7059786744,-181449058.18612
1100,-5600,0,5707.0132293521,-145663206.99466
1100,-9900,0,9960.9236519512,-251295541.32729
1100,-8100,0,8174.3501270743,-202013889.67373
1100,-3300,0,3478.5054261852,-86360405.251509
1100,-4400,0,4535.4161881794,-113384976.66169
1100,-6200,0,6296.8245965725,-157179725.28798
1100,-8800,0,8868.4835231284,-222202517.56937
1100,-8400,0,8471.7176534632,-212881503.67533
1100,-7200,0,7283.5430938521,-185959419.21189
1100,-8900,0,8967.7198885781,-228278243.62146
1100,-2700,0,2915.4759474227,-71544859.746656
1100,-3900,0,4052.159917871,-100362127.76286
1100,-3600,0,3764.3060449437,-93792913.014674
1100,-4800,0,4924.4289008981,-123213886.15758
1100,-2400,0,2640.0757564888,-62244354.595158
1100,-3200,0,3383.7848631377,-85323345.227788
1100,-5400,0,5510.8982933819,-138882863.20849
1100,-3100,0,3289.3768406797,-83193571.771685
1100,-7400,0,7481.3100457072,-185959419.21189
1100,-9600,0,9662.8153247384,-247549786.25944
1100,-1900,0,2195.44984001,-49473182.248469
1100,-7600,0,7679.1926658992,-196661283.9951
1100,-2900,0,3101.6124838542,-77147638.795589
1100,-4600,0,4729.6934361542,-116541059.58513
1100,-2600,0,2823.1188426986,-68274563.56096
1100,-6400,0,6493.8432380217,-161095534.27606
1100,-500,0,1208.3045973595,-12447240.961787
1100,-8200,0,8273.4515167492,-212881503.67533
1100,-1700,0,2024.8456731317,-44038022.584339
1100,-1200,0,1627.88205961,-32261272.256741
1100,-6000,0,6100,-149351501.60538
1100,-5000,0,5119.5702944681,-128739739.18006
1100,-6800,0,6888.3960397178,-174789200.99044
1200,-6800,0,6905.0706006528,-171972542.18254
1200,-7800,0,7891.7678627795,-196661283.9951
1200,-3500,0,3700,-91754516.168952
1200,-5000,0,5141.984052873,-127518422.84784
1200,-9700,0,9773.9449558507,-251295541.32729
1200,-300,0,1236.9316876853,-7387399.5315879
1200,-7500,0,7595.3933407033,-188483502.85251
1200,-500,0,1300,-10417041.410334
1200,-7000,0,7102.1123618259,-178474174.5769
1200,-9500,0,9575.4895436213,-238260871.2374
1200,-9100,0,9178.7798753429,-228278243.62146
1200,-6000,0,6118.8234163113,-151348988.43539
1200,-1200,0,1697.0562748477,-30852108.085196
1200,-3700,0,3889.7300677553,-94790903.930332
1200,-6600,0,6708.2039324994,-166409302.54851
1200,-4100,0,4272.0018726588,-104204380.22396
1200,-1700,0,2080.8652046685,-43754485.492498
1200,-8500,0,8584.2879728024,-218890095.11018
1200,-9400,0,9476.2861923857,-238260871.2374
1200,-2600,0,2863.5642126553,-68040735.840196
1200,-5900,0,6020.7972893961,-151348988.43539
1200,-400,0,1264.9110640674,-10417041.410334
1200,-4700,0,4850.773134254,-118250525.20407
1200,-8000,0,8089.4993664627,-204837042.04276
1200,-4600,0,4753.9457296019,-117628252.53703
1200,-6400,0,6511.5282384399,-163027064.56312
1200,-9300,0,9377.0997648527,-238260871.2374
1200,-7600,0,7694.1536246685,-194084905.03472
1200,-8700,0,8782.3687009827,-222202517.56937
1200,-1400,0,1843.9088914586,-35417974.218693
1200,-800,0,1442.2205101856,-19310655.357309
1200,-8300,0,8386.298349093,-210383265.68724
1200,-1500,0,1920.9372712299,-37522997.039652
1200,-9200,0,9277.9308037946,-232124497.47082
1200,-3000,0,3231.0988842807,-79122111.536508
1200,-8200,0,8287.3397420403,-210383265.68724
1200,-1900,0,2247.2205054244,-48784908.837427
1200,-2900,0,3138.470965295,-76873454.698561
1200,-4200,0,4368.0659335683,-107319294.64835
1200,-7400,0,7496.6659255965,-188483502.85251
1200,-4300,0,4464.3028571099,-109799480.87001
1200,-9600,0,9674.7092979583,-247549786.25944
1200,-6500,0,6609.8411478643,-166409302.54851
1200,-3800,0,3984.9717690343,-97709696.701721
1200,-3100,0,3324.1540277189,-81645276.453095
1200,-5300,0,5434.1512676774,-134975053.98915
1200,-3200,0,3417.601498127,-84522792.967855
1200,-5400,0,5531.7266743757,-137852322.68234
1200,-5700,0,5824.9463516843,-143586487.22071
1200,-2200,0,2505.9928172283,-57650648.457732
1200,-6700,0,6806.6144300967,-171972542.18254
1200,-6200,0,6315.0613615388,-157179725.28798
1200,-7300,0,7397.9726952727,-185959419.21189
1200,-2100,0,2418.6773244896,-54184570.635253
1200,-2300,0,2594.2243542146,-58869026.586368
1200,-1600,0,2000,-41909404.539208
1200,-2400,0,2683.2815729997,-62953215.685978
1200,-6100,0,6216.9124169478,-155262606.10419
1200,-5200,0,5336.6656256505,-132589132.0424
1200,-4800,0,4947.7267507412,-123213886.15758
1200,-600,0,1341.6407864999,-16522385.80629
1200,-8600,0,8683.317338437,-222202517.56937
1200,-2500,0,2773.0849247724,-65991226.231597
1200,-3600,0,3794.7331922021,-92135048.610721
1200,-4900,0,5044.7993022518,-124222125.47256
1200,-1100,0,1627.88205961,-28577454.173475
1200,-3900,0,4080.4411526206,-99655007.953921
1200,-2000,0,2332.3807579381,-51483234.079128
1200,-8900,0,8980.5345052508,-228278243.62146
1200,-7200,0,7299.3150363579,-185959419.21189
1200,-9000,0,9079.6475702529,-228278243.62146
1200,-2800,0,3046.3092423456,-73634191.206594
1200,-5800,0,5922.8371579843,-149351501.60538
1200,-6300,0,6413.2674979296,-163027064.56312
1200,-5500,0,5629.387178015,-140325660.80408
1200,-8800,0,8881.4413244698,-222202517.56937
1200,0,0,1200,-1162622.9232378
1200,-2700,0,2954.6573405388,-71247583.429762
1200,-8400,0,8485.2813742386,-212881503.67533
1200,-7700,0,7792.9455278476,-196661283.9951
1200,-4400,0,4560.7017003966,-113384976.66169
1200,-7900,0,7990.6195003892,-202013889.67373
1200,-700,0,1389.244398945,-16522385.80629
1200,-100,0,1204.1594578792,-1162622.9232378
1200,-1800,0,2163.3307652784,-46625618.879353
1200,-10000,0,10071.742649611,-251295541.32729
1200,-3300,0,3511.4099732159,-85951205.490043
1200,-900,0,1500,-23595458.238308
1200,-9900,0,9972.4620831568,-251295541.32729
1200,-1300,0,1769.1806012954,-34022672.155159
1200,-200,0,1216.5525060596,-6090123.3755769
1200,-4500,0,4657.252408878,-114724074.10066
1200,-5100,0,5239.2747589719,-129941999.02149
1200,-3400,0,3605.551275464,-87768561.25295
1200,-8100,0,8188.4064383737,-204837042.04276
1200,-6900,0,7003.5705179573,-178474174.5769
1200,-7100,0,7200.6944109579,-181449058.18612
1200,-5600,0,5727.1284253105,-143586487.22071
1200,-9800,0,9873.196037758,-251295541.32729
1200,-1000,0,1562.0499351813,-24666000.316321
1200,-4000,0,4176.1226035642,-103077753.60196
1300,-5200,0,5360.037313303,-132053550.63441
1300,-1800,0,2220.3603311175,-46597129.948745
1300,-4000,0,4205.9481689626,-103821440.47514
1300,-100,0,1303.8404810405,-3010385.7227843
1300,-5600,0,5748.9129407219,-143586487.22071
1300,-9800,0,9885.8484714262,-251295541.32729
1300,-5100,0,5263.0789467763,-128815490.76432
1300,-3300,0,3546.8295701936,-84759386.924186
1300,-3900,0,4110.9609582189,-99521796.844811
1300,-3400,0,3640.0549446403,-87392141.404131
1300,-8100,0,8203.6577207975,-204837042.04276
1300,-6900,0,7021.3958726168,-177839269.28567
1300,-5700,0,5846.3663928974,-145410120.73658
1300,-1300,0,1838.477631085,-34022672.155159
1300,-4500,0,4684.0153714521,-114724074.10066
1300,-200,0,1315.2946437966,-6090123.3755769
1300,-900,0,1581.1388300842,-23107330.906151
1300,-9900,0,9984.9887330933,-251295541.32729
1300,-1000,0,1640.1219466857,-24666000.316321
1300,-8400,0,8500,-210383265.68724
1300,-7700,0,7808.9692021419,-194084905.03472
1300,-7900,0,8006.2475604992,-204837042.04276
1300,-8800,0,8895.5044826024,-222202517.56937
1300,-1100,0,1702.9386365926,-28189912.357349
1300,-9000,0,9093.4042030474,-228278243.62146
1300,-5800,0,5943.9044406854,-149450613.9917
1300,-8900,0,8994.4427287075,-228278243.62146
1300,-7200,0,7316.4198895361,-188483502.85251
1300,-4400,0,4588.0278987818,-113587826.40606
1300,-2000,0,2385.3720883753,-52016128.789453
1300,-4900,0,5069.5167422546,-124222125.47256
1300,-8600,0,8697.7008456258,-222202517.56937
1300,-3600,0,3827.5318418009,-92171292.361913
1300,-2700,0,2996.6648127543,-70263708.067869
1300,-10000,0,10084.145972763,-251295541.32729
1300,-4300,0,4492.2154890432,-110877529.05918
1300,-4800,0,4972.9267036625,-122224958.22296
1300,-700,0,1476.4823060233,-19310655.357309
1300,-1600,0,2061.5528128088,-40618410.928806
1300,-2400,0,2729.4688127912,-62627893.42854
1300,-2500,0,2817.8005607211,-65526416.7015
1300,-6100,0,6236.9864518051,-155262606.10419
1300,-2300,0,2641.9689627246,-59562782.78018
1300,-2900,0,3178.0497164141,-76025030.471746
1300,-5500,0,5651.5484603779,-137852322.68234
1300,0,0,1300,-1500278.6365202
1300,-2800,0,3087.0698080866,-72559098.501678
1300,-6700,0,6824.9542123006,-171662657.8927
1300,-1900,0,2302.1728866443,-49342492.879112
1300,-7300,0,7414.8499647667,-188483502.85251
1300,-6200,0,6334.8243858847,-157214013.33712
1300,-2200,0,2555.3864678361,-57148628.776233
1300,-5400,0,5554.2776307995,-137852322.68234
1300,-5300,0,5457.1054598569,-137852322.68234
1300,-3200,0,3453.9832078341,-83183120.444264
1300,-9300,0,9390.4206508548,-237591888.48076
1300,-6300,0,6432.7288144302,-161051056.4132
1300,-3800,0,4016.2171256046,-97313223.528001
1300,-2100,0,2469.8178070457,-53492944.085053
1300,-9600,0,9687.6209669867,-247970581.70609
1300,-6500,0,6628.7253676706,-166409302.54851
1300,-8200,0,8302.4092888751,-210383265.68724
1300,-3000,0,3269.5565448544,-77429942.579904
1300,-8300,0,8401.1903918433,-210383265.68724
1300,-7400,0,7513.3215025047,-188483502.85251
1300,-4200,0,4396.5895873961,-106321033.98667
1300,-7100,0,7218.0329730474,-177839269.28567
1300,-9200,0,9291.3938674453,-237591888.48076
1300,-1500,0,1984.9433241279,-38563086.14771
1300,-3700,0,3921.7343102255,-94193848.856924
1300,-6400,0,6530.6967469023,-163027064.56312
1300,-1400,0,1910.4973174543,-35015739.220356
1300,-9500,0,9588.5348202945,-237591888.48076
1300,-8700,0,8796.5902484997,-222202517.56937
1300,-7600,0,7710.3826104805,-194084905.03472
1300,-4600,0,4780.1673610868,-117628252.53703
1300,-8000,0,8104.9367671809,-204837042.04276
1300,-600,0,1431.7821063276,-14698477.005714
1300,-9400,0,9489.4678459859,-237591888.48076
1300,-3100,0,3361.5472627943,-80108886.543253
1300,-6600,0,6726.8120235369,-168292562.46833
1300,-8500,0,8598.8371306823,-219082392.94141
1300,-400,0,1360.1470508735,-10396953.481056
1300,-5900,0,6041.5229867973,-151348988.43539
1300,-4100,0,4301.1626335213,-103821440.47514
1300,-2600,0,2906.8883707497,-66584760.566289
1300,-6000,0,6139.2181912683,-151348988.43539
1300,-1700,0,2140.0934559033,-44959176.283693
1300,-1200,0,1769.1806012954,-30488236.143788
1300,-7000,0,7119.691004531,-177839269.28567
1300,-9100,0,9192.3881554251,-228278243.62146
1300,-800,0,1526.4337522474,-20477052.648323
1300,-500,0,1392.8388277184,-11831461.249482
1300,-5000,0,5166.2365412358,-127518422.84784
1300,-9700,0,9786.7257037275,-251295541.32729
1300,-3500,0,3733.6309405189,-89928958.952116
1300,-300,0,1334.1664064126,-6090123.3755769
1300,-4700,0,4876.4741360946,-119177240.65298
1300,-7500,0,7611.832893594,-188483502.85251
1300,-6800,0,6923.1495722684,-171662657.8927
1300,-7800,0,7907.5912893877,-194084905.03472
1400,-7800,0,7924.6451024636,-196786233.84602
1400,-9700,0,9800.5101908013,-247970581.70609
1400,-4700,0,4904.0799340957,-119177240.65298
1400,-7500,0,7629.547824085,-188483502.85251
1400,-800,0,1612.4515496597,-18867431.992403
1400,-9100,0,9207.0625065761,-231315018.21205
1400,-3500,0,3769.6153649942,-91493494.292257
1400,-600,0,1523.1546211728,-16030802.992905
1400,-400,0,1456.0219778561,-10396953.481056
1400,-8500,0,8614.5226217127,-219082392.94141
1400,-4100,0,4332.4358044869,-106119295.11705
1400,-9400,0,9503.6834964134,-237591888.48076
1400,-8700,0,8811.9237400241,-219082392.94141
1400,-8000,0,8121.5762016988,-202168755.89592
1400,-1400,0,1979.8989873223,-35015739.220356
1400,-6500,0,6649.0600839517,-166654406.47818
1400,-6300,0,6453.681120105,-161051056.4132
1400,-4200,0,4427.1887242357,-107169104.52109
1400,0,0,1400,-1500278.6365202
1400,-9800,0,9899.4949366117,-247970581.70609
1400,-8300,0,8417.2442046076,-213285093.27729
1400,-3000,0,3310.5890714494,-77534517.134379
1400,-3800,0,4049.6913462633,-97344342.724398
1400,-5300,0,5481.7880294663,-133824462.76357
1400,-2200,0,2607.6809620811,-56549579.992032
1400,-9200,0,9305.9120993055,-237591888.48076
1400,-9300,0,9404.7860156412,-237591888.48076
1400,-100,0,1403.5668847618,-1500278.6365202
1400,-7300,0,7433.0343736593,-185854005.02263
1400,-4600,0,4808.3261120685,-117777222.82626
1400,-2800,0,3130.4951684997,-72807210.067255
1400,-6100,0,6258.5940913275,-157214013.33712
1400,-5500,0,5675.3854494651,-139670402.16027
1400,-2500,0,2865.3097563789,-65065326.596852
1400,-2300,0,2692.5824035673,-60071366.286416
1400,-10000,0,10097.524449091,-251295541.32729
1400,-6700,0,6844.705983459,-171662657.8927
1400,-1600,0,2126.0291625469,-40361879.811495
1400,-2700,0,3041.3812651491,-69999184.04254
1400,-4300,0,4522.167621838,-109683515.10656
1400,-2000,0,2441.3111231467,-51328240.53596
1400,-4900,0,5096.0769224964,-123817651.87535
1400,-6400,0,6551.3357416637,-162808133.95266
1400,-4800,0,5000,-123817651.87535
1400,-7700,0,7826.2379212493,-196786233.84602
1400,-200,0,1414.2135623731,-3010385.7227843
1400,-6900,0,7040.5965656328,-177839269.28567
1400,-4500,0,4712.7486671793,-114804267.65125
1400,-1300,0,1910.4973174543,-33704781.428662
1400,-3900,0,4143.6698710201,-100431031.20504
1400,-5100,0,5288.6671288709,-128815490.76432
1400,-4000,0,4237.9240200834,-102808730.22833
1400,-9000,0,9108.2380293886,-231315018.21205
1400,-5200,0,5385.1648071345,-133824462.76357
1400,-1800,0,2280.3508501983,-46644998.818179
1400,-3300,0,3584.689665787,-86544994.853155
1400,-5800,0,5966.5735560705,-149450613.9917
1400,-3400,0,3676.95526217,-88595295.23516
1400,-8100,0,8220.0973230248,-204837042.04276
1400,-6000,0,6161.1687202997,-151415619.19871
1400,-1000,0,1720.4650534085,-24293733.473034
1400,-9900,0,9998.4998874831,-251295541.32729
1400,-1100,0,1780.4493814765,-26769468.52179
1400,-8400,0,8515.8675424175,-213285093.27729
1400,-8900,0,9009.4394942194,-228278243.62146
1400,-7900,0,8023.0916734137,-202168755.89592
1400,-5700,0,5869.4122363317,-145410120.73658
1400,-8800,0,8910.6677639782,-222202517.56937
1400,-900,0,1664.3316977093,-24293733.473034
1400,-7200,0,7334.8483283569,-185854005.02263
1400,-4400,0,4617.3585522461,-113587826.40606
1400,-8600,0,8713.2083643168,-219082392.94141
1400,-5600,0,5772.3478758647,-143526434.6267
1400,-9600,0,9701.5462685079,-247970581.70609
1400,-8200,0,8318.6537372342,-210383265.68724
1400,-3100,0,3401.470270339,-79420571.183262
1400,-700,0,1565.2475842499,-18867431.992403
1400,-2900,0,3220.2484376209,-75164349.18901
1400,-2400,0,2778.48879789,-62786737.863439
1400,-3600,0,3862.6415831656,-91792523.631784
1400,-1900,0,2360.0847442412,-48158389.550448
1400,-5400,0,5578.5302723925,-137376615.38753
1400,-6200,0,6356.0994328283,-157214013.33712
1400,-3200,0,3492.8498393146,-82068685.572917
1400,-2100,0,2523.8858928248,-52965099.251643
1400,-1500,0,2051.8284528683,-38229105.487767
1400,-7400,0,7531.2681535051,-188483502.85251
1400,-7100,0,7236.7119605523,-180687141.17502
1400,-3700,0,3956.0080889705,-94614394.868469
1400,-9500,0,9602.6038135497,-241198718.62008
1400,-7600,0,7727.8716345447,-194084905.03472
1400,-7000,0,7138.6273190299,-177839269.28567
1400,-6600,0,6746.8511173732,-166654406.47818
1400,-5900,0,6063.8271743182,-149450613.9917
1400,-1200,0,1843.9088914586,-31559916.214094
1400,-1700,0,2202.2715545545,-43806706.23984
1400,-5000,0,5192.3019942989,-127186844.92887
1400,-2600,0,2952.9646120467,-66847404.420957
1400,-500,0,1486.6068747319,-10396953.481056
1400,-6800,0,6942.6219830839,-173867075.32928
1400,-300,0,1431.7821063276,-7713633.892289
1500,-2100,0,2580.6975801128,-53777005.591992
1500,-5900,0,6087.6925020898,-151415619.19871
1500,-9500,0,9617.6920308357,-241198718.62008
1500,-300,0,1529.7058540778,-6882855.4941345
1500,-2900,0,3264.9655434629,-74125302.103439
1500,-4800,0,5028.9163842721,-122389077.89768
1500,-1100,0,1860.1075237738,-28007566.112528
1500,-6600,0,6768.3085036071,-168191885.89912
1500,-7000,0,7158.9105316382,-180687141.17502
1500,-6100,0,6281.7195098158,-155266756.68315
1500,-100,0,1503.3296378373,-3396992.5862243
1500,-6300,0,6476.1099434769,-162808133.95266
1500,-600,0,1615.5494421404,-14823974.452183
1500,-7500,0,7648.5292703892,-188800599.24387
1500,-800,0,1700,-20113855.721442
1500,-1500,0,2121.3203435596,-36837963.989005
1500,-4100,0,4365.7759905886,-106119295.11705
1500,-8300,0,8434.4531535838,-213285093.27729
1500,-4600,0,4838.3881613612,-119179953.88779
1500,-6200,0,6378.8713735268,-155266756.68315
1500,-9300,0,9420.1910808645,-237591888.48076
1500,-2500,0,2915.4759474227,-64628231.104725
1500,-6900,0,7061.1613775639,-177839269.28567
1500,-9000,0,9124.1437954473,-231315018.21205
1500,-700,0,1655.2945357247,-20113855.721442
1500,-8600,0,8729.833904491,-219082392.94141
1500,-1800,0,2343.074902772,-46644998.818179
1500,-6000,0,6184.6584384265,-151415619.19871
1500,-8900,0,9025.5193756371,-228337243.3607
1500,-900,0,1749.2855684536,-22749224.302261
1500,-4400,0,4648.6557196678,-113325220.2243
1500,-5600,0,5797.4132162543,-143526434.6267
1500,-8200,0,8336.066218547,-213285093.27729
1500,-3100,0,3443.8350715445,-80342231.134445
1500,-5700,0,5894.0648113165,-143526434.6267
1500,-7900,0,8041.1441971899,-202168755.89592
1500,-3400,0,3716.1808352124,-87972936.263551
1500,0,0,1500,-1500278.6365202
1500,-3200,0,3534.1194094145,-82997107.627508
1500,-4500,0,4743.4164902526,-113325220.2243
1500,-6800,0,6963.4761434215,-173867075.32928
1500,-500,0,1581.1388300842,-12425565.656922
1500,-2600,0,3001.6662039607,-66586354.180004
1500,-4900,0,5124.4511901276,-123817651.87535
1500,-5000,0,5220.1532544553,-128988474.42207
1500,-1700,0,2267.1568097509,-43378482.283195
1500,-5500,0,5700.8771254957,-139670402.16027
1500,-1200,0,1920.9372712299,-30337302.753905
1500,-7600,0,7746.6121627457,-196786233.84602
1500,-2200,0,2662.7053911389,-56272677.959413
1500,-3700,0,3992.4929555354,-94357520.692882
1500,-3000,0,3354.1019662497,-76776381.771814
1500,-3600,0,3900,-93426256.496158
1500,-7100,0,7256.7210226107,-180687141.17502
1500,-7400,0,7550.4966724051,-185854005.02263
1500,-7800,0,7942.9213769242,-196786233.84602
1500,-9800,0,9914.1313285633,-247970581.70609
1500,-1900,0,2420.743687382,-50633604.815581
1500,-2400,0,2830.194339617,-62290859.817096
1500,-9600,0,9716.480844421,-247970581.70609
1500,-9900,0,10012.991560967,-247970581.70609
1500,-7200,0,7354.5904032788,-185854005.02263
1500,-6500,0,6670.8320320632,-166654406.47818
1500,-8800,0,8926.9255625887,-222170794.95813
1500,-8400,0,8532.8775919967,-213285093.27729
1500,-1400,0,2051.8284528683,-36837963.989005
1500,-7300,0,7452.5163535547,-185854005.02263
1500,-1000,0,1802.775637732,-26769468.52179
1500,-5800,0,5990.8263203001,-151415619.19871
1500,-8500,0,8631.338250816,-219082392.94141
1500,-5400,0,5604.4625076808,-139670402.16027
1500,-8100,0,8237.7181306476,-204991374.04359
1500,-3300,0,3624.9137920784,-85737072.956799
1500,-4000,0,4272.0018726588,-102711292.39009
1500,-5100,0,5316.0135440008,-128988474.42207
1500,-9700,0,9815.2941881535,-247970581.70609
1500,-4700,0,4933.5585534176,-119179953.88779
1500,-3900,0,4178.5164831552,-100357217.05391
1500,-1300,0,1984.9433241279,-34731353.581457
1500,-200,0,1513.2745950422,-3396992.5862243
1500,-9100,0,9222.7978401351,-231315018.21205
1500,-7700,0,7844.7434629821,-196786233.84602
1500,-3500,0,3807.886552932,-90902720.605006
1500,-6400,0,6573.4313718179,-162808133.95266
1500,-10000,0,10111.874208078,-251295541.32729
1500,-400,0,1552.417469626,-10873273.277627
1500,-2800,0,3176.4760348537,-71330031.738155
1500,-9400,0,9518.9285111298,-241198718.62008
1500,-8700,0,8828.3633817373,-219082392.94141
1500,-8000,0,8139.4102980499,-202168755.89592
1500,-2000,0,2500,-50633604.815581
1500,-4300,0,4554.1190146943,-110600183.35587
1500,-2700,0,3088.6890422961,-69675302.386485
1500,-5200,0,5412.0236510939,-132531856.85565
1500,-1600,0,2193.1712199461,-41466850.218026
1500,-6700,0,6865.8575575087,-172010239.77596
1500,-2300,0,2745.9060435492,-59563694.703421
1500,-9200,0,9321.4805690942,-231315018.21205
1500,-5300,0,5508.1757415682,-133824462.76357
1500,-4200,0,4459.8206241956,-107005385.86748
1500,-3800,0,4085.3396431631,-96486714.521512
1600,-2100,0,2640.0757564888,-53261769.181098
1600,-3700,0,4031.1288741493,-93936356.659744
1600,-9500,0,9633.7946833011,-241198718.62008
1600,-9400,0,9535.1979528482,-241198718.62008
1600,-4200,0,4494.4410108488,-106003974.65744
1600,-4800,0,5059.6442562694,-122389077.89768
1600,-9200,0,9338.094023943,-228337243.3607
1600,-5300,0,5536.2442142666,-134337671.23916
1600,-300,0,1627.88205961,-6882855.4941345
1600,-1100,0,1941.6487838948,-26709643.587628
1600,-2700,0,3138.470965295,-70243325.91919
1600,-8700,0,8845.9030064771,-222170794.95813
1600,-2300,0,2801.7851452244,-58786380.448165
1600,-7000,0,7180.5292284065,-180687141.17502
1600,-100,0,1603.1219541881,-1685578.5233638
1600,-5200,0,5440.5882034942,-132531856.85565
1600,-1600,0,2262.741699797,-40123676.339912
1600,-6100,0,6306.346010171,-157177836.36724
1600,-6300,0,6500,-160889624.60705
1600,0,0,1600,-1685578.5233638
1600,-6900,0,7083.0784267859,-173822569.48109
1600,-700,0,1746.4249196573,-18468665.098071
1600,-2000,0,2561.2496949731,-51941696.728903
1600,-8000,0,8158.4312217485,-204991374.04359
1600,-4000,0,4308.1318457076,-103656811.1863
1600,-7500,0,7668.7678280151,-188800599.24387
1600,-3900,0,4215.4477816716,-99343473.621423
1600,-800,0,1788.8543819998,-18468665.098071
1600,-400,0,1649.2422502471,-8979933.1952347
1600,-2800,0,3224.9030993194,-73312479.61434
1600,-1500,0,2193.1712199461,-37938498.003357
1600,-7700,0,7864.4770964127,-194131352.2323
1600,-4100,0,4401.1362169331,-106003974.65744
1600,-6400,0,6596.9690009883,-160889624.60705
1600,-3500,0,3848.3762809788,-90299581.089579
1600,-2500,0,2968.1644159312,-64210504.476789
1600,-8300,0,8452.8101836017,-210553148.56377
1600,-200,0,1612.4515496597,-3396992.5862243
1600,-4300,0,4588.0278987818,-109345531.2496
1600,-4600,0,4870.3182647544,-117788627.24214
1600,-9100,0,9239.5887354362,-228337243.3607
1600,-6200,0,6403.1242374328,-157177836.36724
1600,-1300,0,2061.5528128088,-33587920.412615
1600,-3400,0,3757.6588456112,-88379932.557289
1600,-4700,0,4964.8766349226,-119179953.88779
1600,-9700,0,9831.0731865855,-247970581.70609
1600,-3000,0,3400,-77665776.652807
1600,-5100,0,5345.0912059571,-128988474.42207
1600,-9000,0,9141.1159056212,-228337243.3607
1600,-6700,0,6888.3960397178,-172010239.77596
1600,-8600,0,8747.5710914516,-222170794.95813
1600,-1800,0,2408.3189157585,-46289069.578638
1600,-6000,0,6209.669878504,-151415619.19871
1600,-600,0,1708.8007490635,-16126706.261292
1600,-8900,0,9042.6765949026,-228337243.3607
1600,-900,0,1835.7559750686,-24082669.305514
1600,-3300,0,3667.4241641784,-85187938.386673
1600,-4400,0,4681.8799642879,-114626800.46664
1600,-3100,0,3488.5527085025,-80788364.110556
1600,-5400,0,5632.0511361315,-138040457.76174
1600,-7900,0,8060.3970125547,-202168755.89592
1600,-8100,0,8256.5125809872,-204991374.04359
1600,-5600,0,5824.0879114244,-143526434.6267
1600,-7300,0,7473.2857566134,-185854005.02263
1600,-8500,0,8649.2774264675,-219082392.94141
1600,-8200,0,8354.6394296822,-210553148.56377
1600,-5700,0,5920.3040462463,-145603055.37791
1600,-8400,0,8551.0233305728,-213285093.27729
1600,-10000,0,10127.191120938,-251623605.45389
1600,-3200,0,3577.7087639997,-82495985.925823
1600,-1000,0,1886.7962264113,-26709643.587628
1600,-6800,0,6985.6996786292,-172010239.77596
1600,-1400,0,2126.0291625469,-36497002.344679
1600,-7200,0,7375.6355658343,-185854005.02263
1600,-6500,0,6694.0271884718,-168191885.89912
1600,-8800,0,8944.2719099992,-222170794.95813
1600,-4500,0,4775.9815745038,-114626800.46664
1600,-9900,0,10028.459502835,-251623605.45389
1600,-500,0,1676.305461424,-11911880.930666
1600,-4900,0,5154.6095875439,-123911756.55815
1600,-5800,0,6016.6435825965,-149483246.1113
1600,-6600,0,6791.1707385399,-168191885.89912
1600,-5000,0,5249.7618993627,-127320613.7588
1600,-9600,0,9732.4200484772,-247970581.70609
1600,-9300,0,9436.6307546709,-241198718.62008
1600,-1700,0,2334.5235059858,-44449974.450674
1600,-2400,0,2884.4410203712,-61779209.882652
1600,-2600,0,3052.8675044947,-66206677.102475
1600,-1900,0,2483.9484696748,-49340630.177235
1600,-9800,0,9929.7532698451,-247970581.70609
1600,-5500,0,5728.0013966479,-139670402.16027
1600,-1200,0,2000,-31525215.262513
1600,-7800,0,7962.4116949578,-196786233.84602
1600,-7400,0,7570.9972922991,-188800599.24387
1600,-2900,0,3312.0990323358,-74949280.384875
1600,-7100,0,7278.0491891715,-180687141.17502
1600,-5900,0,6113.1006862312,-149483246.1113
1600,-7600,0,7766.595135579,-194131352.2323
1600,-3600,0,3939.5431207184,-93426256.496158
1600,-2200,0,2720.2941017471,-55120157.403786
1600,-3800,0,4123.1056256177,-97120612.831352
1700,-3700,0,4071.8546143005,-96055185.516847
1700,-3600,0,3981.2058474789,-92875571.645522
1700,-7600,0,7787.810988975,-194131352.2323
1700,-2200,0,2780.2877548916,-55912018.147485
1700,-5500,0,5756.7351858497,-139906868.49881
1700,-7800,0,7983.1071645068,-196855835.21507
1700,-2600,0,3106.4449134018,-67383136.151713
1700,-5900,0,6140.0325732035,-149483246.1113
1700,-7100,0,7300.6848993776,-178499267.1835
1700,-2900,0,3361.5472627943,-74213568.424864
1700,-7400,0,7592.7597090913,-188800599.24387
1700,-1200,0,2080.8652046685,-30759948.678996
1700,0,0,1700,-1685578.5233638
1700,-2400,0,2941.0882339705,-61237067.047748
1700,-1900,0,2549.5097567964,-49006538.283009
1700,-6600,0,6815.4236845555,-168191885.89912
1700,-9800,0,9946.3561166892,-251623605.45389
1700,-1700,0,2404.1630560343,-43367479.128426
1700,-9300,0,9454.0996398388,-238189786.80744
1700,-1400,0,2202.2715545545,-36497002.344679
1700,-5000,0,5281.0983706044,-127320613.7588
1700,-9600,0,9749.3589532851,-241198718.62008
1700,-5800,0,6044.0052945046,-149483246.1113
1700,-8800,0,8962.7004859027,-222170794.95813
1700,-4500,0,4810.4053883223,-114626800.46664
1700,-9900,0,10044.899203078,-251623605.45389
1700,-500,0,1772.0045146669,-14048480.632034
1700,-6500,0,6718.6308128963,-166049926.45359
1700,-1000,0,1972.3082923316,-26709643.587628
1700,-6800,0,7009.27956355,-173822569.48109
1700,-3200,0,3623.5341863987,-82011990.176325
1700,-6700,0,6912.3078635142,-172010239.77596
1700,-4900,0,5186.520991956,-123911756.55815
1700,-8400,0,8570.2975444263,-210553148.56377
1700,-5700,0,5948.1089431852,-145603055.37791
1700,-8500,0,8668.3331731077,-219330028.87042
1700,-8200,0,8374.3656476177,-210553148.56377
1700,-5600,0,5852.3499553598,-143701428.40565
1700,-8100,0,8276.4726786234,-204991374.04359
1700,-7300,0,7495.3318805774,-188800599.24387
1700,-5400,0,5661.2719418873,-138040457.76174
1700,-4400,0,4716.9905660283,-113476493.46036
1700,-2700,0,3190.6112267088,-69728425.156584
1700,-8600,0,8766.4131775772,-222170794.95813
1700,-3100,0,3535.5339059327,-80195912.093237
1700,-600,0,1802.775637732,-14048480.632034
1700,-4700,0,4997.9995998399,-119226704.23444
1700,-7200,0,7397.9726952727,-188800599.24387
1700,-8900,0,9060.9050320594,-228337243.3607
1700,-900,0,1923.5384061671,-22506404.712951
1700,-3300,0,3712.1422386541,-84669770.075313
1700,-6100,0,6332.456079595,-155345034.77358
1700,-9000,0,9159.1484320323,-228337243.3607
1700,-3800,0,4162.9316592997,-96643702.414101
1700,-1800,0,2475.883680628,-47308840.291212
1700,-9400,0,9552.4865872714,-238189786.80744
1700,-4800,0,5092.1508225896,-122371728.0615
1700,-5100,0,5375.8720222862,-128982904.66459
1700,-9700,0,9847.8424032881,-251623605.45389
1700,-3000,0,3448.1879299133,-76936992.156767
1700,-9100,0,9257.4294488265,-231655425.04211
1700,-6000,0,6236.1847310675,-151474181.24494
1700,-3400,0,3801.3155617496,-87100903.353753
1700,-1300,0,2140.0934559033,-32681285.072032
1700,-4300,0,4623.8512086788,-110851338.52765
1700,-8300,0,8472.3078319901,-210553148.56377
1700,-200,0,1711.7242768624,-3597890.3866514
1700,-1500,0,2267.1568097509,-37549307.596095
1700,-4600,0,4904.0799340957,-117788627.24214
1700,-4200,0,4531.0043036837,-107165347.48763
1700,-2500,0,3023.2432915662,-63820425.485774
1700,-4100,0,4438.4682042344,-106187444.84392
1700,-6400,0,6621.9332524573,-162579920.13972
1700,-2800,0,3275.6678708318,-72624779.675078
1700,-800,0,1878.8294228056,-19684413.463926
1700,-7700,0,7885.4296014865,-194131352.2323
1700,-7900,0,8080.8415403348,-204991374.04359
1700,-7500,0,7690.2535718922,-188800599.24387
1700,-3900,0,4254.4094772365,-100153701.74138
1700,-2000,0,2624.8809496813,-51941696.728903
1700,-700,0,1838.477631085,-19684413.463926
1700,-8000,0,8178.6306922369,-204991374.04359
1700,-6300,0,6525.3352404302,-160889624.60705
1700,-6900,0,7106.3352017759,-173822569.48109
1700,-3500,0,3891.0152916687,-90869448.471962
1700,-6200,0,6428.8412641782,-157177836.36724
1700,-1600,0,2334.5235059858,-41286871.290636
1700,-100,0,1702.9386365926,-1685578.5233638
1700,-5200,0,5470.831746636,-132596423.14135
1700,-7000,0,7203.4713853808,-178499267.1835
1700,-2300,0,2860.069929215,-57758843.937346
1700,-1100,0,2024.8456731317,-28386142.66643
1700,-5300,0,5565.9680200303,-134337671.23916
1700,-300,0,1726.2676501632,-8979933.1952347
1700,-4000,0,4346.2627624201,-102576433.6693
1700,-9200,0,9355.7468969612,-231655425.04211
1700,-8700,0,8864.5360848721,-222170794.95813
1700,-9500,0,9650.9066931558,-241198718.62008
1700,-400,0,1746.4249196573,-8979933.1952347
1700,-2100,0,2701.8512172213,-54557696.541029
1700,-10000,0,10143.470806386,-251623605.45389
1800,-10000,0,10160.708636704,-251623605.45389
1800,-6800,0,7034.2021580276,-173822569.48109
1800,-100,0,1802.775637732,-3597890.3866514
1800,-6400,0,6648.3080554379,-162579920.13972
1800,-1500,0,2343.074902772,-37549307.596095
1800,-2100,0,2765.8633371879,-55341466.050116
1800,-6300,0,6552.0989003525,-162579920.13972
1800,-8300,0,8492.9382430346,-213515472.90606
1800,-200,0,1811.0770276275,-3597890.3866514
1800,-5500,0,5787.0545184921,-139906868.49881
1800,-9900,0,10062.305898749,-251623605.45389
1800,-7900,0,8102.4687595819,-202330503.76632
1800,-8600,0,8786.3530545955,-219330028.87042
1800,-6100,0,6360.0314464631,-155345034.77358
1800,-4500,0,4846.6483264211,-114986135.55272
1800,-3200,0,3671.5119501372,-82654611.937871
1800,-2200,0,2842.5340807104,-57194746.48908
1800,-8500,0,8688.4981440983,-219330028.87042
1800,-1800,0,2545.5844122716,-46482053.607979
1800,-7800,0,8004.9984384758,-196855835.21507
1800,-8000,0,8200,-202330503.76632
1800,-6900,0,7130.9185944028,-173822569.48109
1800,-1400,0,2280.3508501983,-35963360.744573
1800,-4200,0,4569.4638635183,-107336501.11
1800,-9500,0,9669.0227013902,-238189786.80744
1800,-8700,0,8884.2557369765,-219330028.87042
1800,-4800,0,5126.4022471905,-122371728.0615
1800,-600,0,1897.366596101,-14762915.402456
1800,-3500,0,3935.7337308309,-90078455.614004
1800,-2300,0,2920.616373302,-58397340.63316
1800,-3100,0,3584.689665787,-79097804.850056
1800,-6500,0,6744.6274915669,-166049926.45359
1800,-1600,0,2408.3189157585,-41072211.063269
1800,-7700,0,7907.5912893877,-196855835.21507
1800,-1300,0,2220.3603311175,-33314894.780687
1800,-5400,0,5692.0997883031,-139906868.49881
1800,-8800,0,8982.2046291542,-222170794.95813
1800,-3900,0,4295.3463189829,-99789680.479991
1800,-5800,0,6072.8905802756,-149561632.0551
1800,-2400,0,3000,-60726339.971543
1800,-2000,0,2690.7248094147,-51374757.603587
1800,-4400,0,4753.9457296019,-113476493.46036
1800,-7600,0,7810.2496759067,-194131352.2323
1800,-1200,0,2163.3307652784,-33314894.780687
1800,-8900,0,9080.1982357215,-231655425.04211
1800,-5600,0,5882.1764679411,-143701428.40565
1800,-9800,0,9963.9349656649,-251623605.45389
1800,-3600,0,4024.9223594996,-91562361.056688
1800,-9400,0,9570.7888912043,-238189786.80744
1800,-700,0,1931.3207915828,-17878055.155803
1800,-300,0,1824.8287590895,-7411430.4822166
1800,-6200,0,6456.0049566276,-157410683.31825
1800,-7000,0,7227.7243998371,-178499267.1835
1800,-4600,0,4939.6356140914,-117846090.36645
1800,-2500,0,3080.5843601499,-63470155.320482
1800,-4300,0,4661.5448083227,-109964074.4767
1800,-500,0,1868.1541692269,-14762915.402456
1800,-9600,0,9767.2923576598,-241622620.5456
1800,-4100,0,4477.7226354476,-106187444.84392
1800,-7500,0,7712.9760793095,-188800599.24387
1800,-1100,0,2109.5023109729,-27127777.321441
1800,0,0,1800,-1828444.0682353
1800,-9000,0,9178.235124467,-231655425.04211
1800,-8200,0,8395.2367447261,-210553148.56377
1800,-3400,0,3847.0768123343,-88362171.607
1800,-3000,0,3498.5711369072,-76369502.46505
1800,-5200,0,5502.726596879,-132596423.14135
1800,-2600,0,3162.2776601684,-65892376.882386
1800,-4900,0,5220.1532544553,-123813994.76768
1800,-6600,0,6841.0525505948,-167297186.44794
1800,-8100,0,8297.5900115636,-204991374.04359
1800,-7100,0,7324.616030892,-181032378.65513
1800,-5900,0,6168.4682053165,-151474181.24494
1800,-7400,0,7615.7731058639,-188800599.24387
1800,-5700,0,5977.4576535514,-143701428.40565
1800,-1000,0,2059.1260281974,-24025284.39057
1800,-6700,0,6937.578828381,-171240445.67404
1800,-8400,0,8590.6926379658,-213515472.90606
1800,-3700,0,4114.6081222882,-95179841.673496
1800,-2900,0,3413.2096331752,-74696189.903431
1800,-5300,0,5597.3207876626,-134341042.39217
1800,-9100,0,9276.3139231054,-231655425.04211
1800,-9300,0,9472.5920423082,-238189786.80744
1800,-800,0,1969.7715603592,-19684413.463926
1800,-2700,0,3244.9961479176,-68516761.714535
1800,-9700,0,9865.5967888415,-251623605.45389
1800,-3300,0,3758.9892258425,-84549446.39811
1800,-400,0,1843.9088914586,-9260819.1314473
1800,-7300,0,7518.6434946738,-186185595.05933
1800,-5100,0,5408.326913196,-128982904.66459
1800,-6000,0,6264.1839053463,-151474181.24494
1800,-1900,0,2617.2504656605,-48089710.861141
1800,-4000,0,4386.3424398923,-102341389.10151
1800,-3800,0,4204.7592083257,-96643702.414101
1800,-900,0,2012.4611797498,-24025284.39057
1800,-4700,0,5032.8918128646,-119226704.23444
1800,-7200,0,7421.5901261118,-186185595.05933
1800,-5000,0,5314.1321022346,-128982904.66459
1800,-9200,0,9374.4333162064,-231655425.04211
1800,-1700,0,2475.883680628,-43510735.900324
1800,-2800,0,3328.6633954186,-71799393.083472
1900,-2800,0,3383.7848631377,-70650215.139111
1900,-1700,0,2549.5097567964,-43510735.900324
1900,0,0,1900,-1828444.0682353
1900,-1500,0,2420.743687382,-39564928.033704
1900,-9200,0,9394.147114028,-231655425.04211
1900,-6400,0,6676.0766921898,-160961408.05702
1900,-7200,0,7446.4756764526,-186185595.05933
1900,-5000,0,5348.8316481265,-127189870.65963
1900,-4700,0,5069.5167422546,-119130697.88611
1900,-900,0,2102.3796041629,-22231191.176891
1900,-100,0,1902.629759044,-1828444.0682353
1900,-6800,0,7060.4532432415,-171240445.67404
1900,-3800,0,4248.5291572496,-98448441.638888
1900,-2100,0,2831.9604517013,-54068516.713508
1900,-200,0,1910.4973174543,-1828444.0682353
1900,-4000,0,4428.3179650969,-103331531.5948
1900,-8300,0,8514.6931829632,-213515472.90606
1900,-5700,0,6008.3275543199,-145616729.17518
1900,-7900,0,8125.2692263088,-202330503.76632
1900,-1900,0,2687.0057685089,-48589605.226568
1900,-6100,0,6389.0531379853,-157410683.31825
1900,-5100,0,5442.4259296751,-127189870.65963
1900,-6000,0,6293.6475910238,-149561632.0551
1900,-8600,0,8807.3832663283,-219330028.87042
1900,-7300,0,7543.2088662584,-186185595.05933
1900,-4500,0,4884.6698967279,-114986135.55272
1900,-3200,0,3721.5588131857,-82149397.088417
1900,-400,0,1941.6487838948,-9260819.1314473
1900,-2200,0,2906.8883707497,-57071863.934873
1900,-9100,0,9296.2357973537,-231655425.04211
1900,-3300,0,3807.886552932,-84176987.467931
1900,-8500,0,8709.7646351667,-219330028.87042
1900,-5500,0,5818.9346103905,-138057030.18773
1900,-9700,0,9884.3310345213,-248312520.27134
1900,-7800,0,8028.0757345705,-196855835.21507
1900,-1800,0,2617.2504656605,-47051921.216755
1900,-2700,0,3301.5148038438,-68730971.35629
1900,-800,0,2061.5528128088,-19083918.787767
1900,-9300,0,9492.1019800674,-238189786.80744
1900,-1400,0,2360.0847442412,-37036939.02393
1900,-2900,0,3466.9871646719,-74397952.278601
1900,-8000,0,8222.5300242687,-202330503.76632
1900,-8400,0,8612.200647918,-213515472.90606
1900,-4200,0,4609.7722286464,-107336501.11
1900,-3700,0,4159.3268686171,-95841943.911341
1900,-9500,0,9688.1370758263,-241622620.5456
1900,-5300,0,5630.2753041037,-134341042.39217
1900,-4800,0,5162.3637996561,-123813994.76768
1900,-6700,0,6964.1941385921,-171240445.67404
1900,-1000,0,2147.0910553584,-24025284.39057
1900,-8700,0,8905.0547443573,-219330028.87042
1900,-3500,0,3982.461550348,-90798639.935009
1900,-3100,0,3635.9317925396,-78658850.244098
1900,-2300,0,2983.2867780353,-59663905.209323
1900,-7400,0,7640.0261779656,-186185595.05933
1900,-600,0,1992.4858845171,-12717254.144545
1900,-6500,0,6772.0011813348,-167297186.44794
1900,-5900,0,6198.3868869247,-149561632.0551
1900,-7100,0,7349.8299300052,-181032378.65513
1900,-6600,0,6868.0419334771,-167297186.44794
1900,-9900,0,10080.674580602,-251623605.45389
1900,-8100,0,8319.8557679806,-205160975.35919
1900,-6300,0,6580.2735505448,-160961408.05702
1900,-1600,0,2483.9484696748,-41072211.063269
1900,-7700,0,7930.9520235593,-196855835.21507
1900,-4900,0,5255.4733373884,-123813994.76768
1900,-1300,0,2302.1728866443,-31705014.881392
1900,-2600,0,3220.2484376209,-64867602.458301
1900,-5200,0,5536.2442142666,-134341042.39217
1900,-3000,0,3551.0561809129,-77002111.715628
1900,-3400,0,3894.8684188301,-87427974.983168
1900,-5400,0,5724.5087125447,-138057030.18773
1900,-9000,0,9198.369420718,-231655425.04211
1900,-8200,0,8417.2442046076,-210781462.93361
1900,-10000,0,10178.899744078,-251623605.45389
1900,-6900,0,7156.8149340332,-171240445.67404
1900,-8800,0,9002.7773492406,-222543182.34787
1900,-3900,0,4338.2023926968,-98448441.638888
1900,-5800,0,6103.2778078669,-149561632.0551
1900,-1100,0,2195.44984001,-28822358.564127
1900,-2400,0,3061.0455730028,-61841013.023965
1900,-2000,0,2758.6228448267,-50820000.904664
1900,-7500,0,7736.9244535539,-188853132.819
1900,-7600,0,7833.9006886736,-196855835.21507
1900,-4400,0,4792.7027865287,-113825096.74305
1900,-9600,0,9786.214794291,-241622620.5456
1900,-4100,0,4518.849411078,-106028125.78508
1900,-1200,0,2247.2205054244,-31705014.881392
1900,-9400,0,9590.0990610108,-241622620.5456
1900,-2500,0,3140.0636936215,-64867602.458301
1900,-8900,0,9100.5494339628,-228691816.89118
1900,-4300,0,4701.0637094173,-109964074.4767
1900,-500,0,1964.6882704388,-12717254.144545
1900,-9800,0,9982.4846606444,-248312520.27134
1900,-4600,0,4976.9468552517,-117846090.36645
1900,-7000,0,7253.2751223154,-181032378.65513
1900,-5600,0,5913.543776789,-145616729.17518
1900,-6200,0,6484.5971347494,-157410683.31825
1900,-3600,0,4070.6264874095,-90798639.935009
1900,-700,0,2024.8456731317,-19083918.787767
1900,-300,0,1923.5384061671,-9260819.1314473
2000,-300,0,2022.3748416157,-7549710.6869646
2000,-3600,0,4118.2520563948,-91887298.245937
2000,-6200,0,6514.5989899609,-157410683.31825
2000,-5600,0,5946.4274989274,-143711094.24989
2000,-4900,0,5292.4474489597,-122153718.51657
2000,-700,0,2118.9620100417,-17195557.078785
2000,-500,0,2061.5528128088,-14098237.986628
2000,-9800,0,10001.99980004,-248312520.27134
2000,-8900,0,9121.951545585,-228691816.89118
2000,-4300,0,4742.3622805518,-109884984.53453
2000,-2500,0,3201.5621187164,-64441041.497663
2000,-4400,0,4833.2183894378,-111169497.79612
2000,-4100,0,4561.7978911828,-106028125.78508
2000,-1200,0,2332.3807579381,-30982699.144044
2000,-4600,0,5015.9744815938,-117647679.58881
2000,-7500,0,7762.08734813,-188853132.819
2000,-7600,0,7858.7530817554,-194198477.97797
2000,-2400,0,3124.0998703627,-62489819.045065
2000,-9400,0,9610.4110213872,-241622620.5456
2000,-9600,0,9806.120537705,-241622620.5456
2000,-2000,0,2828.4271247462,-51667238.079879
2000,-1100,0,2282.5424421027,-28305858.249054
2000,-3900,0,4382.9214001622,-99312467.727383
2000,-8800,0,9024.4113381428,-222543182.34787
2000,-5800,0,6135.1446600712,-149561632.0551
2000,-3000,0,3605.551275464,-77298153.071442
2000,-10000,0,10198.039027186,-251623605.45389
2000,-8200,0,8440.3791384037,-210781462.93361
2000,-6900,0,7184.0100222647,-173479273.49831
2000,-3400,0,3944.6165846632,-87211872.640316
2000,-9000,0,9219.5444572929,-228691816.89118
2000,-5400,0,5758.4720195552,-139864525.38923
2000,-600,0,2088.0613017821,-14098237.986628
2000,-2600,0,3280.2438933713,-67529959.390365
2000,-1300,0,2385.3720883753,-32902643.095568
2000,-6300,0,6609.8411478643,-160961408.05702
2000,-5200,0,5571.3553108736,-132483042.25846
2000,-1600,0,2561.2496949731,-40692272.978989
2000,-7000,0,7280.1098892805,-178592071.22133
2000,-9300,0,9512.6231923692,-241622620.5456
2000,-7700,0,7955.5012412795,-194198477.97797
2000,-6500,0,6800.7352543677,-164009170.37001
2000,-9900,0,10100,-248312520.27134
2000,-8100,0,8343.2607534465,-205160975.35919
2000,-5900,0,6229.767250869,-151644436.75187
2000,-7400,0,7665.5071586947,-188853132.819
2000,-2300,0,3047.9501308256,-58610507.630016
2000,-7100,0,7376.313442364,-181032378.65513
2000,-6600,0,6896.3758598267,-167297186.44794
2000,-3100,0,3689.1733491393,-80609267.771467
2000,-6700,0,6992.1384425653,-171240445.67404
2000,-3500,0,4031.1288741493,-90533365.987996
2000,-8700,0,8926.9255625887,-222543182.34787
2000,-1000,0,2236.0679774998,-26075915.332429
2000,-5300,0,5664.8036153074,-132483042.25846
2000,-3700,0,4205.9481689626,-94395733.732657
2000,-8400,0,8634.8132579692,-210781462.93361
2000,-4200,0,4651.8813398452,-107129069.73393
2000,-9500,0,9708.2439194738,-241622620.5456
2000,-8000,0,8246.2112512353,-205160975.35919
2000,-2900,0,3522.7829907617,-73388035.388037
2000,-1800,0,2690.7248094147,-47051921.216755
2000,-1700,0,2624.8809496813,-43120228.538168
2000,-1400,0,2441.3111231467,-35389449.042411
2000,-2700,0,3360.0595232823,-68315610.98038
2000,-9700,0,9904.0395798886,-248312520.27134
2000,-7800,0,8052.328855679,-196855835.21507
2000,-5500,0,5852.3499553598,-139864525.38923
2000,-5000,0,5385.1648071345,-128811572.21657
2000,-2200,0,2973.2137494637,-55205647.70477
2000,-3200,0,3773.5924528226,-80609267.771467
2000,-800,0,2154.0659228538,-22231191.176891
2000,-8500,0,8732.1245982865,-219330028.87042
2000,-9100,0,9317.1884171138,-228691816.89118
2000,-400,0,2039.6078054371,-9260819.1314473
2000,-4500,0,4924.4289008981,-114987023.71228
2000,-7300,0,7569.0157880665,-188853132.819
2000,-4800,0,5200,-122153718.51657
2000,-8600,0,8829.4960218576,-222543182.34787
2000,-6000,0,6324.5553203368,-151644436.75187
2000,-1900,0,2758.6228448267,-47051921.216755
2000,-6100,0,6419.5015382816,-155663374.54356
2000,-3300,0,3858.7562763149,-84996115.657964
2000,-7900,0,8149.2330927517,-205160975.35919
2000,-6800,0,7088.0180586677,-173479273.49831
2000,-5700,0,6040.6953242156,-143711094.24989
2000,-5100,0,5478.1383699209,-128811572.21657
2000,-8300,0,8537.5640553966,-210781462.93361
2000,-4000,0,4472.1359549996,-101916558.82101
2000,0,0,2000,-1828444.0682353
2000,-200,0,2009.9751242242,-3907453.3269934
2000,-2100,0,2900,-53979634.186067
2000,-4700,0,5107.8371156489,-119130697.88611
2000,-3800,0,4294.1821107168,-99312467.727383
2000,-6400,0,6705.2218456961,-164009170.37001
2000,-100,0,2002.4984394501,-3907453.3269934
2000,-900,0,2193.1712199461,-23266430.367617
2000,-7200,0,7472.6166769078,-186185595.05933
2000,-9200,0,9414.8818367519,-231655425.04211
2000,-1500,0,2500,-39564928.033704
2000,-2800,0,3440.9301068171,-71433519.408587
2100,-7200,0,7500,-181136942.83534
2100,-3000,0,3661.9666847201,-77549185.302585
2100,-100,0,2102.3796041629,-2097572.4367035
2100,-8300,0,8561.5419172016,-210781462.93361
2100,-6800,0,7116.8813394632,-173479273.49831
2100,-8200,0,8464.6323015238,-210781462.93361
2100,-9600,0,9827.0036124955,-241622620.5456
2100,-2300,0,3114.4823004795,-59020268.105887
2100,-1000,0,2325.9406699226,-26075915.332429
2100,-5300,0,5700.8771254957,-134235252.13323
2100,-3500,0,4081.6663263917,-90533365.987996
2100,-1500,0,2580.6975801128,-39130626.072289
2100,-5200,0,5608.029957124,-134235252.13323
2100,-3700,0,4254.4094772365,-95295972.717712
2100,-2700,0,3420.5262752974,-68315610.98038
2100,-7000,0,7308.2145562374,-178592071.22133
2100,-8700,0,8949.8603341058,-222543182.34787
2100,-6400,0,6735.7256476196,-163365700.11963
2100,-9900,0,10120.27667606,-251658463.57302
2100,-200,0,2109.5023109729,-3907453.3269934
2100,-6500,0,6830.8125431752,-163365700.11963
2100,-2100,0,2969.8484809835,-55026777.747033
2100,0,0,2100,-2097572.4367035
2100,-9700,0,9924.7166206396,-248312520.27134
2100,-4200,0,4695.7427527496,-107129069.73393
2100,-5000,0,5423.0987451825,-126925823.03192
2100,-6600,0,6926.0378283691,-166478191.40682
2100,-9100,0,9339.1648448884,-232076230.08069
2100,-7700,0,7981.227975694,-194198477.97797
2100,-7400,0,7692.2038454529,-188853132.819
2100,-1300,0,2469.8178070457,-31943793.60145
2100,-700,0,2213.5943621179,-18500400.515987
2100,-5600,0,5980.8026217223,-143711094.24989
2100,-5900,0,6262.5873247405,-149825226.50272
2100,-4400,0,4875.4486972996,-111099490.88627
2100,-8100,0,8367.7954085888,-205160975.35919
2100,-8400,0,8658.5218137971,-213776074.81127
2100,-6100,0,6451.3564465157,-155663374.54356
2100,-400,0,2137.7558326432,-9506199.2198989
2100,-5700,0,6074.537019395,-145775571.02664
2100,-5400,0,5793.9623747484,-138004226.19963
2100,-6700,0,7021.3958726168,-173479273.49831
2100,-9400,0,9631.7184344228,-241622620.5456
2100,-8000,0,8271.0337927009,-205160975.35919
2100,-5800,0,6168.4682053165,-149825226.50272
2100,-5500,0,5887.274411814,-139864525.38923
2100,-2600,0,3342.1549934137,-67144143.266827
2100,-7800,0,8077.7472107018,-196913750.63132
2100,-1900,0,2831.9604517013,-48007210.261238
2100,-9300,0,9534.1491492424,-238476160.35691
2100,-9000,0,9241.7530804496,-228691816.89118
2100,-7300,0,7596.0516059332,-188853132.819
2100,-8800,0,9047.0989825468,-222543182.34787
2100,-4000,0,4517.7427992306,-102906834.8362
2100,-3800,0,4341.6586692185,-97822137.021045
2100,-2000,0,2900,-50294444.941542
2100,-1600,0,2640.0757564888,-39130626.072289
2100,-7900,0,8174.3501270743,-202406584.45702
2100,-3400,0,3996.2482405376,-86884626.374303
2100,-2400,0,3189.0437438204,-61256693.032847
2100,-4800,0,5239.2747589719,-123491652.48161
2100,-2900,0,3580.5027579936,-73216735.183787
2100,-3900,0,4429.44691807,-97822137.021045
2100,-3200,0,3827.5318418009,-81184526.013935
2100,-500,0,2158.7033144923,-12586009.442839
2100,-8600,0,8852.6832090615,-219717324.9775
2100,-1700,0,2701.8512172213,-44197328.421107
2100,-900,0,2284.7319317592,-23266430.367617
2100,-1100,0,2370.6539182259,-28305858.249054
2100,-800,0,2247.2205054244,-21279727.699823
2100,-7600,0,7884.7954951286,-194198477.97797
2100,-9800,0,10022.474744293,-248312520.27134
2100,-1800,0,2765.8633371879,-46542567.21463
2100,-9200,0,9436.6307546709,-232076230.08069
2100,-6900,0,7212.4891681028,-173479273.49831
2100,-2800,0,3500,-71145154.846047
2100,-6000,0,6356.8860301251,-151644436.75187
2100,-1200,0,2418.6773244896,-30982699.144044
2100,-9500,0,9729.3370791642,-241622620.5456
2100,-7100,0,7404.0529441651,-178592071.22133
2100,-2200,0,3041.3812651491,-57529235.264823
2100,-7500,0,7788.4529914483,-188853132.819
2100,-8500,0,8755.569655939,-219717324.9775
2100,-1400,0,2523.8858928248,-36533800.110076
2100,-4600,0,5056.6787519082,-117647679.58881
2100,-4100,0,4606.5171225124,-105647161.43581
2100,-10000,0,10218.121158021,-251658463.57302
2100,-8900,0,9144.3971917235,-228691816.89118
2100,-4500,0,4965.8836071741,-114987023.71228
2100,-4900,0,5331.0411741047,-123491652.48161
2100,-2500,0,3264.9655434629,-65185202.369514
2100,-5100,0,5515.4328932551,-128811572.21657
2100,-4300,0,4785.3944456022,-109884984.53453
2100,-3300,0,3911.5214431216,-84501106.972464
2100,-600,0,2184.0329667842,-14098237.986628
2100,-6200,0,6545.9911396213,-158550675.98872
2100,-6300,0,6640.7830863536,-163365700.11963
2100,-4700,0,5147.8150704935,-118754059.96922
2100,-3100,0,3744.3290453698,-79784575.698782
2100,-3600,0,4167.7331968349,-91441682.898063
2100,-300,0,2121.3203435596,-7549710.6869646
2200,-3100,0,3801.3155617496,-80930950.968028
2200,-4700,0,5189.4122981316,-118754059.96922
2200,-8900,0,9167.8787077491,-232076230.08069
2200,-100,0,2202.2715545545,-2097572.4367035
2200,-3600,0,4219.0046219458,-91441682.898063
2200,-600,0,2280.3508501983,-16614489.411536
2200,-3300,0,3966.1064030104,-83267273.173852
2200,-300,0,2220.3603311175,-9341931.8222264
2200,-4300,0,4830.1138702933,-109894733.57682
2200,-5100,0,5554.2776307995,-128559323.21293
2200,-4500,0,5008.9919145473,-114402765.99303
2200,-6300,0,6673.0802482811,-158550675.98872
2200,-4900,0,5371.2196007983,-126925823.03192
2200,-2500,0,3330.1651610693,-64012992.498761
2200,-7100,0,7433.0343736593,-181136942.83534
2200,-4100,0,4652.9560496527,-107036229.56772
2200,-1400,0,2607.6809620811,-34851513.811006
2200,-4600,0,5099.0195135928,-118754059.96922
2200,-8500,0,8780.0911157003,-219717324.9775
2200,-7500,0,7816.0092118677,-188853132.819
2200,-10000,0,10239.140588936,-251658463.57302
2200,-1800,0,2842.5340807104,-46542567.21463
2200,-2200,0,3111.2698372208,-58426107.288517
2200,0,0,2200,-2097572.4367035
2200,-9500,0,9751.4101544341,-238476160.35691
2200,-1200,0,2505.9928172283,-31943793.60145
2200,-2800,0,3560.898762953,-70823342.586153
2200,-9200,0,9459.3868723084,-232076230.08069
2200,-6900,0,7242.2372234,-173479273.49831
2200,-3200,0,3883.2975677895,-80930950.968028
2200,-1600,0,2720.2941017471,-40325170.47142
2200,-4400,0,4919.3495504995,-111099490.88627
2200,-7600,0,7912.016177941,-196913750.63132
2200,-9800,0,10043.903623592,-251658463.57302
2200,-800,0,2340.9399821439,-21279727.699823
2200,-6200,0,6578.7536813594,-158550675.98872
2200,-1100,0,2459.6747752498,-27716372.818123
2200,-8600,0,8876.9364084689,-219717324.9775
2200,-500,0,2256.1028345357,-13882370.987146
2200,-900,0,2376.9728648009,-22830260.655322
2200,-7200,0,7528.6120898875,-181136942.83534
2200,-1700,0,2780.2877548916,-42810388.469787
2200,-3400,0,4049.6913462633,-87779886.626816
2200,-2400,0,3255.7641192199,-60704192.113012
2200,-4800,0,5280.1515129776,-121737545.79476
2200,-7900,0,8200.6097334284,-202406584.45702
2200,-3800,0,4390.89968002,-98680750.055421
2200,-2000,0,2973.2137494637,-51141704.841922
2200,-2900,0,3640.0549446403,-74154912.263336
2200,-4200,0,4741.3078364519,-107036229.56772
2200,-9400,0,9654.0147089177,-238476160.35691
2200,-6000,0,6390.6181234682,-152220922.09906
2200,-8800,0,9070.8323763589,-219717324.9775
2200,-4000,0,4565.0848842053,-101344918.61894
2200,-9000,0,9264.9878575204,-232076230.08069
2200,-7800,0,8104.3198357419,-196913750.63132
2200,-1900,0,2906.8883707497,-47638581.623581
2200,-8300,0,8586.6174946832,-213776074.81127
2200,-5500,0,5923.681287848,-139921278.46757
2200,-9300,0,9556.6730612698,-238476160.35691
2200,-5800,0,6203.2249677083,-149825226.50272
2200,-2600,0,3405.8772731853,-66778718.568813
2200,-7300,0,7624.3032468548,-186258544.78962
2200,-8400,0,8683.317338437,-213776074.81127
2200,-400,0,2236.0679774998,-9506199.2198989
2200,-6700,0,7051.9500849056,-171144727.62047
2200,-5700,0,6109.8281481561,-145775571.02664
2200,-5400,0,5830.9518948453,-138004226.19963
2200,-8100,0,8393.4498270973,-202406584.45702
2200,-6400,0,6767.5697262755,-163365700.11963
2200,-5600,0,6016.6435825965,-143926823.92755
2200,-6100,0,6484.5971347494,-156972168.69218
2200,-5900,0,6296.8245965725,-149825226.50272
2200,-1300,0,2555.3864678361,-31943793.60145
2200,-9900,0,10141.498903022,-251658463.57302
2200,-3500,0,4134.0053217189,-90019948.15596
2200,-9100,0,9362.1578709184,-232076230.08069
2200,-5000,0,5462.6001134991,-128559323.21293
2200,-8000,0,8296.9874050766,-202406584.45702
2200,-7700,0,8008.1208782086,-196913750.63132
2200,-2100,0,3041.3812651491,-53497002.742932
2200,-6500,0,6862.2153857191,-166478191.40682
2200,-5300,0,5738.4666941614,-134235252.13323
2200,-200,0,2209.0722034375,-3969210.8063924
2200,-700,0,2308.679276123,-16614489.411536
2200,-6600,0,6957.0108523704,-166478191.40682
2200,-8700,0,8973.8509013689,-219717324.9775
2200,-7000,0,7337.5745311377,-181136942.83534
2200,-2700,0,3482.8149534536,-69948262.215805
2200,-5200,0,5646.2376853972,-132317682.98448
2200,-3700,0,4304.6486500062,-93815388.47705
2200,-1500,0,2662.7053911389,-40325170.47142
2200,-2300,0,3182.7660925679,-58426107.288517
2200,-9700,0,9946.3561166892,-251658463.57302
2200,-9600,0,9848.8578017961,-241622620.5456
2200,-1000,0,2416.6091947189,-25799448.523829
2200,-3900,0,4477.7226354476,-98680750.055421
2200,-6800,0,7147.0273540823,-171144727.62047
2200,-7400,0,7720.1036262475,-186258544.78962
2200,-3000,0,3720.2150475477,-76359619.286625
2200,-8200,0,8489.9941107165,-213776074.81127
2300,-7300,0,7653.757247261,-186258544.78962
2300,-7900,0,8228.0009722897,-202406584.45702
2300,-4700,0,5232.5901807805,-121737545.79476
2300,-8200,0,8516.4546614187,-210941070.34015
2300,-100,0,2302.1728866443,-3969210.8063924
2300,-3100,0,3860.0518131238,-79760696.66933
2300,-1000,0,2507.9872407969,-25799448.523829
2300,-3600,0,4272.0018726588,-92469581.598827
2300,-3000,0,3780.2116342872,-77413304.962415
2300,-9700,0,9968.9518004653,-248300141.52804
2300,-3300,0,4022.4370722238,-84551049.484463
2300,-600,0,2376.9728648009,-16614489.411536
2300,-4900,0,5412.9474410897,-126590124.82628
2300,-3200,0,3940.8120990476,-80912508.95387
2300,-4500,0,5053.7115073973,-114402765.99303
2300,-3900,0,4527.6925690687,-100694458.15752
2300,-3700,0,4356.6041821584,-94422693.814461
2300,-1500,0,2745.9060435492,-38802845.755639
2300,-6800,0,7178.4399419372,-173739496.89902
2300,0,0,2300,-1957932.542403
2300,-8500,0,8805.6799851005,-213776074.81127
2300,-5100,0,5594.6402922797,-128559323.21293
2300,-700,0,2404.1630560343,-17875312.831075
2300,-2300,0,3252.6911934581,-56954827.564335
2300,-2500,0,3397.0575502926,-63527435.118412
2300,-5000,0,5503.6351623268,-128559323.21293
2300,-7100,0,7463.2432628181,-181136942.83534
2300,-9600,0,9871.6766559688,-241804016.18684
2300,-1400,0,2692.5824035673,-36067339.612062
2300,-2700,0,3546.8295701936,-69586742.16079
2300,-6300,0,6706.7130548429,-156972168.69218
2300,-2200,0,3182.7660925679,-56954827.564335
2300,-5200,0,5685.9475903318,-132317682.98448
2300,-6600,0,6989.2775020026,-166478191.40682
2300,-9200,0,9483.1429389206,-232076230.08069
2300,-8700,0,8998.8888202933,-219717324.9775
2300,-200,0,2308.679276123,-3969210.8063924
2300,-7000,0,7368.1748079155,-178642773.14075
2300,-300,0,2319.4827009486,-7361943.2122814
2300,-5300,0,5777.5427302617,-134110463.58592
2300,-1200,0,2594.2243542146,-30506982.025058
2300,-2100,0,3114.4823004795,-52978323.560257
2300,-4100,0,4701.0637094173,-105470223.65603
2300,-4300,0,4876.4741360946,-109894733.57682
2300,-800,0,2435.1591323772,-21192954.457347
2300,-9100,0,9386.1600242059,-232076230.08069
2300,-7400,0,7749.1935064237,-188870552.47225
2300,-6900,0,7273.2386183873,-173739496.89902
2300,-1600,0,2801.7851452244,-38802845.755639
2300,-5900,0,6332.456079595,-152220922.09906
2300,-6100,0,6519.2024052026,-156972168.69218
2300,-6400,0,6800.7352543677,-166478191.40682
2300,-4600,0,5142.9563482495,-116916784.39717
2300,-7700,0,8036.1682411458,-196913750.63132
2300,-8000,0,8324.0615086627,-202406584.45702
2300,-7600,0,7940.4030124421,-194190663.2244
2300,-8100,0,8420.2137740084,-205194603.11318
2300,-3500,0,4188.0783182744,-90319178.253185
2300,-9900,0,10163.660757818,-251658463.57302
2300,-7500,0,7844.7434629821,-188870552.47225
2300,-1300,0,2641.9689627246,-34410796.549864
2300,-9800,0,10066.280345788,-251658463.57302
2300,-1800,0,2920.616373302,-46708147.826347
2300,-10000,0,10261.091559868,-251658463.57302
2300,-3800,0,4441.8464629026,-96916717.876961
2300,-5700,0,6146.5437442517,-143926823.92755
2300,-6200,0,6612.8662469462,-156972168.69218
2300,-8400,0,8709.1905479212,-213776074.81127
2300,-400,0,2334.5235059858,-9341931.8222264
2300,-2800,0,3623.5341863987,-70823342.586153
2300,-9500,0,9774.4565066299,-241804016.18684
2300,-5400,0,5869.4122363317,-139921278.46757
2300,-4400,0,4964.8766349226,-111993171.03558
2300,-5600,0,6053.9243470661,-143926823.92755
2300,-500,0,2353.720459188,-12134150.557112
2300,-6700,0,7083.7842993699,-171144727.62047
2300,-1900,0,2983.2867780353,-48779294.562652
2300,-1700,0,2860.069929215,-44349255.301308
2300,-1100,0,2549.5097567964,-27716372.818123
2300,-2600,0,3471.310991542,-66778718.568813
2300,-8300,0,8612.7812000538,-213776074.81127
2300,-2400,0,3324.1540277189,-61391273.526975
2300,-9400,0,9677.2930099279,-238476160.35691
2300,-8600,0,8902.2469073824,-219717324.9775
2300,-900,0,2469.8178070457,-22830260.655322
2300,-5800,0,6239.3909959226,-146063579.71214
2300,-4200,0,4788.5279575252,-107036229.56772
2300,-2900,0,3701.3511046643,-73918752.605996
2300,-6000,0,6425.7295305669,-152220922.09906
2300,-9000,0,9289.2410884851,-229136430.47468
2300,-6500,0,6894.9256703753,-166478191.40682
2300,-7200,0,7558.4389922788,-181136942.83534
2300,-3400,0,4104.8751503548,-86678419.979088
2300,-4000,0,4614.1087980237,-102369369.51625
2300,-8800,0,9095.6033334793,-222929968.18415
2300,-4800,0,5322.5933528685,-123075563.02867
2300,-9300,0,9580.187889598,-238476160.35691
2300,-5500,0,5961.5434243156,-139921278.46757
2300,-7800,0,8132.0354155648,-196913750.63132
2300,-2000,0,3047.9501308256,-50702198.83011
2300,-8900,0,9192.3881554251,-229136430.47468
2400,-7900,0,8256.5125809872,-205194603.11318
2400,-7400,0,7779.4601355107,-188870552.47225
2400,-7800,0,8160.8823052413,-194190663.2244
2400,-9300,0,9604.6863561493,-241804016.18684
2400,-3700,0,4410.21541424,-93057372.123584
2400,-8800,0,9121.4034007931,-222929968.18415
2400,-4800,0,5366.5631459995,-123075563.02867
2400,-3400,0,4161.730409337,-87194359.090469
2400,-1700,0,2941.0882339705,-43065311.017423
2400,-7200,0,7589.4663844041,-181090634.87686
2400,-6500,0,6928.924880528,-164332190.87673
2400,-6000,0,6462.1977685614,-150371128.16255
2400,-9000,0,9314.504817756,-229136430.47468
2400,-7500,0,7874.642849044,-188870552.47225
2400,-900,0,2563.2011235953,-22431283.254545
2400,-2900,0,3764.3060449437,-73918752.605996
2400,-4000,0,4664.7615158762,-100694458.15752
2400,-5800,0,6276.9419305901,-146063579.71214
2400,-4200,0,4837.3546489791,-106425052.51068
2400,-5500,0,6000.833275471,-138039014.26886
2400,-8300,0,8640.0231481171,-210941070.34015
2400,-2000,0,3124.0998703627,-48779294.562652
2400,-9400,0,9701.5462685079,-241804016.18684
2400,-8400,0,8736.1318671366,-210941070.34015
2400,-2400,0,3394.1125496954,-61630732.175533
2400,-8600,0,8928.6057142199,-222929968.18415
2400,-2600,0,3538.3612025908,-65838969.521727
2400,-1100,0,2640.0757564888,-27560289.952337
2400,-10000,0,10283.968105746,-251658463.57302
2400,-4400,0,5011.9856344567,-111733724.28263
2400,-6700,0,7116.8813394632,-173739496.89902
2400,-1900,0,3061.0455730028,-48779294.562652
2400,-6300,0,6741.6615162733,-159612563.05852
2400,-9500,0,9798.4692682072,-241804016.18684
2400,-5100,0,5636.4882684168,-128274559.63499
2400,-5600,0,6092.6184846911,-146063579.71214
2400,-5400,0,5909.3146810777,-138039014.26886
2400,-400,0,2433.1050121193,-9348923.6588741
2400,-2800,0,3687.8177829172,-70540455.666213
2400,-500,0,2451.5301344263,-12390697.582379
2400,0,0,2400,-1957932.542403
2400,-6200,0,6648.3080554379,-159612563.05852
2400,-5700,0,6184.6584384265,-146063579.71214
2400,-9100,0,9411.1635837446,-229136430.47468
2400,-3800,0,4494.4410108488,-97788186.137696
2400,-9900,0,10186.75610781,-251658463.57302
2400,-6400,0,6835.202996254,-164332190.87673
2400,-9800,0,10089.598604504,-248300141.52804
2400,-3500,0,4243.8190347846,-88208619.070943
2400,-1300,0,2729.4688127912,-34410796.549864
2400,-4600,0,5188.4487084291,-117650803.06183
2400,-7600,0,7969.9435380685,-194190663.2244
2400,-8100,0,8448.0767041972,-205194603.11318
2400,-7700,0,8065.3580205717,-194190663.2244
2400,-1800,0,3000,-44349255.301308
2400,-6900,0,7305.4773971316,-173739496.89902
2400,-5900,0,6369.4583757177,-150371128.16255
2400,-1600,0,2884.4410203712,-40128479.096657
2400,-8000,0,8352.2452071284,-205194603.11318
2400,-5200,0,5727.1284253105,-134110463.58592
2400,-800,0,2529.8221281347,-21192954.457347
2400,-4300,0,4924.4289008981,-111733724.28263
2400,-6100,0,6555.150646629,-156972168.69218
2400,-8500,0,8832.3269867006,-213776074.81127
2400,-2100,0,3189.0437438204,-54014022.58992
2400,-4100,0,4750.7894080879,-106425052.51068
2400,-1200,0,2683.2815729997,-31872605.678674
2400,-5300,0,5818.0752831155,-134110463.58592
2400,-300,0,2418.6773244896,-7361943.2122814
2400,-2200,0,3255.7641192199,-56631676.364437
2400,-7000,0,7400,-178642773.14075
2400,-8700,0,9024.9653738948,-222929968.18415
2400,-6600,0,7022.8199464318,-164332190.87673
2400,-2700,0,3612.4783736377,-69586742.16079
2400,-9600,0,9895.4535014824,-241804016.18684
2400,-1400,0,2778.48879789,-34410796.549864
2400,-200,0,2408.3189157585,-3969210.8063924
2400,-7100,0,7494.6647690207,-178642773.14075
2400,-9200,0,9507.8914592038,-232076230.08069
2400,-2500,0,3465.5446902327,-63745795.990765
2400,-2300,0,3324.1540277189,-58028944.199375
2400,-700,0,2500,-17875312.831075
2400,-5000,0,5546.1698495448,-126590124.82628
2400,-6800,0,7211.102550928,-173739496.89902
2400,-3900,0,4579.3012567421,-100694458.15752
2400,-1500,0,2830.194339617,-40128479.096657
2400,-600,0,2473.8633753706,-15285910.839592
2400,-4900,0,5456.1891462815,-126590124.82628
2400,-9700,0,9992.4971853886,-248300141.52804
2400,-3600,0,4326.6615305568,-92469581.598827
2400,-4500,0,5100,-114965337.23831
2400,-3300,0,4080.4411526206,-83361798.603901
2400,-3000,0,3841.8745424597,-76160137.914967
2400,-1000,0,2600,-25487242.545121
2400,-3200,0,4000,-80912508.95387
2400,-100,0,2402.0824298929,-1957932.542403
2400,-7300,0,7684.3997813753,-188870552.47225
2400,-4700,0,5277.3099207835,-120942886.56096
2400,-8200,0,8544.0037453175,-210941070.34015
2400,-8900,0,9217.917335277,-229136430.47468
2400,-3100,0,3920.4591567825,-79761662.139802
2500,-8200,0,8572.6308680591,-210941070.34015
2500,-3100,0,3982.461550348,-80812323.359542
2500,-7500,0,7905.6941504209,-188870552.47225
2500,-1700,0,3023.2432915662,-44503123.296196
2500,-8900,0,9244.4577991357,-229136430.47468
2500,-7300,0,7716.2166895442,-186209433.49205
2500,-1000,0,2692.5824035673,-25487242.545121
2500,-3000,0,3905.1248379533,-76726248.29729
2500,-4700,0,5323.5326616825,-120942886.56096
2500,-1500,0,2915.4759474227,-38539119.774495
2500,-100,0,2501.9992006394,-1957932.542403
2500,-4900,0,5500.90901579,-128274559.63499
2500,-9700,0,10016.985574513,-248300141.52804
2500,-3300,0,4140.0483088969,-84515331.21337
2500,-3900,0,4632.4939287602,-100135786.15277
2500,-200,0,2507.9872407969,-3798603.4774635
2500,-3600,0,4382.9214001622,-91284360.860165
2500,-6300,0,6777.9052811322,-159612563.05852
2500,-700,0,2596.1509971494,-16801366.392672
2500,-600,0,2570.9920264365,-15285910.839592
2500,-5000,0,5590.1699437495,-128274559.63499
2500,-2300,0,3397.0575502926,-57786805.193671
2500,-6800,0,7244.998274672,-173739496.89902
2500,-9600,0,9920.1814499534,-241804016.18684
2500,-7100,0,7527.2837066235,-181090634.87686
2500,-2500,0,3535.5339059327,-65838969.521727
2500,-5900,0,6407.8077374403,-150371128.16255
2500,-6600,0,7057.6199954376,-166479035.95907
2500,-8700,0,9052.0715861067,-222929968.18415
2500,-9200,0,9533.6247041721,-232195619.46218
2500,-1400,0,2865.3097563789,-35661510.225762
2500,-7000,0,7433.0343736593,-178642773.14075
2500,-1600,0,2968.1644159312,-38539119.774495
2500,-2200,0,3330.1651610693,-56631676.364437
2500,-300,0,2517.9356624028,-7834144.7978223
2500,-5300,0,5860.0341295934,-134110463.58592
2500,-2700,0,3679.6738985948,-69159689.724615
2500,-4100,0,4802.0828814172,-104541505.96329
2500,-1200,0,2773.0849247724,-30198198.368477
2500,-8000,0,8381.5273071201,-205194603.11318
2500,-2100,0,3264.9655434629,-52414291.059689
2500,-8500,0,8860.0225733347,-213853658.73202
2500,-6100,0,6592.4198895398,-157122357.52244
2500,-800,0,2624.8809496813,-22431283.254545
2500,-4300,0,4973.9320461784,-109181871.09974
2500,-8100,0,8477.0277810091,-205194603.11318
2500,-1800,0,3080.5843601499,-44503123.296196
2500,-6900,0,7338.9372527635,-173739496.89902
2500,-5200,0,5769.7486947007,-132138802.01944
2500,-7600,0,8000.6249755878,-194190663.2244
2500,-4600,0,5235.4560450834,-117650803.06183
2500,-1300,0,2817.8005607211,-33830598.817592
2500,-9800,0,10113.851887387,-248300141.52804
2500,-7700,0,8095.6778592036,-196757250.76053
2500,-3800,0,4548.6261662177,-95977841.190063
2500,0,0,2500,-1957932.542403
2500,-500,0,2549.5097567964,-12390697.582379
2500,-3200,0,4060.7881008494,-80812323.359542
2500,-3500,0,4301.1626335213,-88449175.217774
2500,-2800,0,3753.6648758247,-70593827.987878
2500,-6200,0,6685.0579653433,-157122357.52244
2500,-6400,0,6870.9533545208,-164332190.87673
2500,-5600,0,6132.6992425848,-144022592.77578
2500,-9900,0,10210.778618695,-248300141.52804
2500,-5100,0,5679.7887284652,-128274559.63499
2500,-9500,0,9823.4413521942,-241804016.18684
2500,-9100,0,9437.1605899232,-232195619.46218
2500,-10000,0,10307.764064044,-251658463.57302
2500,-6700,0,7151.2236715124,-171255340.01922
2500,-5700,0,6224.1465278382,-144022592.77578
2500,-5400,0,5950.6302187247,-138039014.26886
2500,-1100,0,2731.3000567495,-27560289.952337
2500,-9400,0,9726.7671916213,-241804016.18684
2500,-1900,0,3140.0636936215,-49445075.02674
2500,-8600,0,8956.003573023,-219897166.9359
2500,-2400,0,3465.5446902327,-60588631.718797
2500,-2900,0,3828.8379438153,-74456060.619538
2500,-2600,0,3606.9377593743,-66365601.325178
2500,-4200,0,4887.73976394,-109181871.09974
2500,-4500,0,5147.8150704935,-114965337.23831
2500,-900,0,2657.0660511173,-22431283.254545
2500,-2000,0,3201.5621187164,-52414291.059689
2500,-8400,0,8764.1314458422,-213853658.73202
2500,-400,0,2531.7977802344,-9348923.6588741
2500,-6000,0,6500,-152580707.58081
2500,-5500,0,6041.5229867973,-139929145.01697
2500,-7200,0,7621.6796049165,-181090634.87686
2500,-4000,0,4716.9905660283,-101806058.07788
2500,-3400,0,4220.1895692018,-87194359.090469
2500,-5800,0,6315.8530698553,-146063579.71214
2500,-8800,0,9148.2238713315,-222929968.18415
2500,-8300,0,8668.3331731077,-210941070.34015
2500,-7800,0,8190.8485518901,-196757250.76053
2500,-9000,0,9340.7708461347,-229136430.47468
2500,-4800,0,5412.0236510939,-120942886.56096
2500,-6500,0,6964.1941385921,-166479035.95907
2500,-4400,0,5060.632371552,-111733724.28263
2500,-7900,0,8286.1329943466,-202277836.40765
2500,-9300,0,9630.1609540028,-238467986.7868
2500,-7400,0,7810.8898340714,-188870552.47225
2500,-3700,0,4465.4227123532,-95977841.190063
2600,-1700,0,3106.4449134018,-42838320.198268
2600,-7400,0,7843.468620451,-186209433.49205
2600,-4400,0,5110.7729356723,-114532194.67475
2600,-7900,0,8316.8503653727,-202277836.40765
2600,-6500,0,7000.7142492749,-166479035.95907
2600,-7600,0,8032.4342512093,-196757250.76053
2600,-8200,0,8602.3252670426,-213853658.73202
2600,-9300,0,9656.603957914,-238467986.7868
2600,-5800,0,6356.0994328283,-145991057.36723
2600,-7200,0,7655.0636836019,-186209433.49205
2600,-9000,0,9368.0307429043,-232195619.46218
2600,-8800,0,9176.0557975636,-219897166.9359
2600,-3400,0,4280.1869118065,-86337453.52957
2600,-4000,0,4770.7441767506,-101585742.75292
2600,-4800,0,5458.9376255825,-122387192.8741
2600,-6000,0,6539.1130897087,-152580707.58081
2600,-400,0,2630.5892875932,-7834144.7978223
2600,-8300,0,8697.7008456258,-213853658.73202
2600,-8400,0,8793.1791747922,-213853658.73202
2600,-7800,0,8221.9219164378,-196757250.76053
2600,-900,0,2751.3632984395,-22799064.01251
2600,-2000,0,3280.2438933713,-53490351.812746
2600,-5700,0,6264.9820430708,-144022592.77578
2600,-3500,0,4360.0458713183,-88449175.217774
2600,-2900,0,3894.8684188301,-74456060.619538
2600,-8500,0,8888.7569434652,-213853658.73202
2600,-2600,0,3676.95526217,-66365601.325178
2600,-9100,0,9464.1428560647,-232195619.46218
2600,-4200,0,4939.6356140914,-105933090.29399
2600,-4500,0,5197.1145840745,-114532194.67475
2600,-2400,0,3538.3612025908,-61859003.640456
2600,-1100,0,2823.1188426986,-28625722.519541
2600,-9400,0,9752.9482721893,-238467986.7868
2600,-5400,0,5993.3296255087,-137845926.0961
2600,-5100,0,5724.5087125447,-132138802.01944
2600,-8600,0,8984.4309780865,-219897166.9359
2600,-9900,0,10235.721762533,-251622689.59022
2600,-5000,0,5635.6011214421,-126304080.18296
2600,-1900,0,3220.2484376209,-47589109.998094
2600,-9500,0,9849.365461795,-241804016.18684
2600,-6200,0,6723.0945255886,-157122357.52244
2600,-6400,0,6907.9664156682,-163994381.85501
2600,-5600,0,6174.1396161733,-144022592.77578
2600,-2800,0,3820.9946349086,-70907389.500304
2600,-6700,0,7186.7934435324,-171255340.01922
2600,-4600,0,5283.9379254492,-114532194.67475
2600,-3700,0,4522.167621838,-95505366.956314
2600,-7700,0,8127.1151093115,-196757250.76053
2600,-500,0,2647.6404589747,-15370901.430446
2600,-1300,0,2906.8883707497,-33830598.817592
2600,-5200,0,5813.7767414995,-132138802.01944
2600,-6900,0,7373.6015623303,-173555484.92386
2600,-7000,0,7467.2618810378,-181090634.87686
2600,-4300,0,5024.9378105604,-108823228.39413
2600,-8100,0,8507.0558949615,-202277836.40765
2600,-800,0,2720.2941017471,-20537225.652889
2600,-6100,0,6630.9878600402,-157122357.52244
2600,-2100,0,3342.1549934137,-53490351.812746
2600,-2200,0,3405.8772731853,-56242323.928128
2600,-10000,0,10332.473082472,-251622689.59022
2600,-1200,0,2863.5642126553,-30995949.311775
2600,-2700,0,3748.3329627983,-69159689.724615
2600,-3800,0,4604.3457732885,-97153456.492414
2600,-5300,0,5903.3888572582,-133902681.06878
2600,-300,0,2617.2504656605,-7834144.7978223
2600,-8000,0,8411.8963379252,-202277836.40765
2600,-1600,0,3052.8675044947,-39892597.579928
2600,-6800,0,7280.1098892805,-171255340.01922
2600,-9800,0,10139.033484509,-248300141.52804
2600,-9600,0,9945.8534073251,-241804016.18684
2600,-9200,0,9560.3347221737,-232195619.46218
2600,-4100,0,4854.8944375753,-105933090.29399
2600,-6600,0,7093.6591403873,-166479035.95907
2600,-2500,0,3606.9377593743,-64610381.303498
2600,-5900,0,6447.4801279259,-152580707.58081
2600,-8700,0,9080.1982357215,-219897166.9359
2600,-7100,0,7561.0845782864,-181090634.87686
2600,-1400,0,2952.9646120467,-33830598.817592
2600,-2300,0,3471.310991542,-57786805.193671
2600,-600,0,2668.3328128253,-16801366.392672
2600,-5500,0,6083.5844697021,-139929145.01697
2600,-1800,0,3162.2776601684,-47589109.998094
2600,-100,0,2601.9223662515,-3798603.4774635
2600,-700,0,2692.5824035673,-16801366.392672
2600,-6300,0,6815.4236845555,-159322677.52174
2600,-3600,0,4440.7206622349,-91284360.860165
2600,0,0,2600,-1981979.2147107
2600,-9700,0,10042.410069301,-248300141.52804
2600,-200,0,2607.6809620811,-3798603.4774635
2600,-3300,0,4201.19030752,-83690253.157321
2600,-4900,0,5547.0712993435,-126304080.18296
2600,-4700,0,5371.2196007983,-122387192.8741
2600,-1500,0,3001.6662039607,-39892597.579928
2600,-3200,0,4123.1056256177,-80812323.359542
2600,-3000,0,3969.8866482558,-76726248.29729
2600,-3100,0,4045.9856648288,-79006061.125861
2600,-1000,0,2785.6776554368,-25826318.022043
2600,-7300,0,7749.1935064237,-186209433.49205
2600,-8900,0,9272.0008628127,-229136430.47468
2600,-3900,0,4687.2166581032,-100135786.15277
2600,-7500,0,7937.8838489865,-188721623.5839
2700,-7900,0,8348.6525858967,-202277836.40765
2700,-1600,0,3138.470965295,-39892597.579928
2700,-1200,0,2954.6573405388,-28625722.519541
2700,-1000,0,2879.2360097776,-25826318.022043
2700,-7300,0,7783.315488916,-188721623.5839
2700,-800,0,2816.0255680657,-22799064.01251
2700,-9900,0,10261.578825892,-251622689.59022
2700,-1500,0,3088.6890422961,-38168778.559482
2700,-7100,0,7596.0516059332,-178508857.91097
2700,-6800,0,7316.4198895361,-173555484.92386
2700,-6200,0,6762.3960250787,-159322677.52174
2700,-5100,0,5770.6152185014,-131664584.9028
2700,-5600,0,6216.9124169478,-145991057.36723
2700,-6100,0,6670.8320320632,-159322677.52174
2700,-2100,0,3420.5262752974,-52023623.950748
2700,-2400,0,3612.4783736377,-59764128.721544
2700,-5000,0,5682.4290580701,-126304080.18296
2700,-5700,0,6307.1388124886,-145991057.36723
2700,-2900,0,3962.3225512318,-74016751.764512
2700,-6600,0,7130.9185944028,-166479035.95907
2700,-6000,0,6579.5136598384,-150299013.55556
2700,-4800,0,5507.2679252057,-122387192.8741
2700,-4100,0,4909.1750834534,-104689598.29157
2700,-8800,0,9204.8900047746,-222823849.49545
2700,-5900,0,6488.4512790033,-150299013.55556
2700,-5300,0,5948.1089431852,-133902681.06878
2700,-7600,0,8065.3580205717,-193962426.84759
2700,-2700,0,3818.3766184074,-69650417.957011
2700,-1700,0,3190.6112267088,-44409139.545466
2700,-3300,0,4263.8011210656,-83690253.157321
2700,-6500,0,7038.4657419071,-163994381.85501
2700,-8300,0,8728.1154896117,-210809787.66063
2700,-5800,0,6397.6558206893,-145991057.36723
2700,-8500,0,8918.5200566013,-213853658.73202
2700,-8600,0,9013.87818866,-219897166.9359
2700,-4700,0,5420.3320931471,-120483433.88549
2700,-9500,0,9876.2341001011,-238467986.7868
2700,-9300,0,9684.0074349414,-238467986.7868
2700,-7500,0,7971.1981533519,-188721623.5839
2700,-2000,0,3360.0595232823,-52023623.950748
2700,-8100,0,8538.1496824546,-204980660.60163
2700,-6400,0,6946.2219947249,-163994381.85501
2700,-9700,0,10068.763578514,-251622689.59022
2700,-8900,0,9300.5376188691,-228920456.22273
2700,-1900,0,3301.5148038438,-49101323.114909
2700,-5400,0,6037.3835392494,-137845926.0961
2700,-3700,0,4580.3929962395,-95505366.956314
2700,-6700,0,7223.5725233433,-173555484.92386
2700,-1800,0,3244.9961479176,-47559432.394325
2700,-200,0,2707.3972741362,-1981979.2147107
2700,-3200,0,4186.8842830917,-81431944.855838
2700,-3600,0,4500,-92526511.493348
2700,-100,0,2701.8512172213,-1981979.2147107
2700,-3100,0,4110.9609582189,-79017914.757394
2700,-2500,0,3679.6738985948,-64610381.303498
2700,-2600,0,3748.3329627983,-66140027.461433
2700,-9100,0,9492.1019800674,-232195619.46218
2700,-1300,0,2996.6648127543,-35060664.38671
2700,-5200,0,5859.1808301161,-133902681.06878
2700,-9600,0,9972.4620831568,-241804016.18684
2700,-9200,0,9588.0133500116,-232195619.46218
2700,-8400,0,8823.2647019116,-213853658.73202
2700,-7000,0,7502.6661927611,-178508857.91097
2700,-400,0,2729.4688127912,-9188193.5126289
2700,-3800,0,4661.5448083227,-95505366.956314
2700,-300,0,2716.6155414412,-9188193.5126289
2700,-600,0,2765.8633371879,-15370901.430446
2700,-4300,0,5077.4009099144,-110990539.69555
2700,-9800,0,10165.13649687,-251622689.59022
2700,-1400,0,3041.3812651491,-35060664.38671
2700,-2200,0,3482.8149534536,-56941338.265027
2700,-6300,0,6854.1957952775,-159322677.52174
2700,-6900,0,7409.4534211371,-173555484.92386
2700,-2800,0,3889.7300677553,-70907389.500304
2700,-4600,0,5333.8541412378,-116850590.90041
2700,-4000,0,4825.9714048055,-101585742.75292
2700,-2300,0,3546.8295701936,-59764128.721544
2700,-700,0,2789.2651361963,-15370901.430446
2700,-9000,0,9396.2758580195,-232195619.46218
2700,-500,0,2745.9060435492,-12188668.955399
2700,-5500,0,6126.9894728162,-137845926.0961
2700,-3500,0,4420.4072210601,-87386213.926908
2700,-4900,0,5594.6402922797,-126304080.18296
2700,-9400,0,9780.0817992489,-238467986.7868
2700,-3000,0,4036.0872141221,-76328827.845825
2700,0,0,2700,-1981979.2147107
2700,-4400,0,5162.3637996561,-110990539.69555
2700,-7400,0,7877.1822373232,-188721623.5839
2700,-1100,0,2915.4759474227,-28625722.519541
2700,-4200,0,4992.995093128,-106393219.76901
2700,-7800,0,8254.0898953186,-196757250.76053
2700,-10000,0,10358.088626769,-251622689.59022
2700,-4500,0,5247.8567053608,-114532194.67475
2700,-8700,0,9109.3358704134,-219897166.9359
2700,-8200,0,8633.0759292387,-210809787.66063
2700,-7200,0,7689.6033707858,-186209433.49205
2700,-8000,0,8443.3405711247,-204980660.60163
2700,-3400,0,4341.6586692185,-86337453.52957
2700,-3900,0,4743.4164902526,-100034956.3746
2700,-900,0,2846.0498941515,-22799064.01251
2700,-7700,0,8159.6568555301,-193962426.84759
2800,-1700,0,3275.6678708318,-42826345.789191
2800,-8200,0,8664.8716089738,-210809787.66063
2800,-900,0,2941.0882339705,-21619470.411156
2800,-3400,0,4404.543109109,-87386213.926908
2800,-8000,0,8475.8480401668,-204980660.60163
2800,-3900,0,4801.0415536631,-100034956.3746
2800,-7200,0,7725.2831663312,-186021031.42293
2800,-4500,0,5300,-116850590.90041
2800,-3600,0,4560.7017003966,-90739613.176984
2800,-8700,0,9139.474820798,-222823849.49545
2800,-7400,0,7912.016177941,-188721623.5839
2800,-1100,0,3008.3217912983,-29609513.486366
2800,-3000,0,4103.6569057366,-76935097.487585
2800,-4200,0,5047.7717856496,-106393219.76901
2800,-4400,0,5215.3619241621,-109813680.03152
2800,-4900,0,5643.580423809,-127843805.87612
2800,-9400,0,9808.1598681914,-241291433.75152
2800,-3500,0,4482.186966203,-90739613.176984
2800,-9000,0,9425.4973343585,-228920456.22273
2800,-700,0,2886.1739379324,-17948114.543779
2800,-100,0,2801.7851452244,-3960614.3745063
2800,-5500,0,6171.7096496838,-139577599.63551
2800,-500,0,2844.2925306656,-12188668.955399
2800,-2300,0,3623.5341863987,-59764128.721544
2800,-300,0,2816.0255680657,-7181415.2756436
2800,-4600,0,5385.1648071345,-116850590.90041
2800,-4000,0,4882.6222462935,-100034956.3746
2800,-6900,0,7446.4756764526,-173555484.92386
2800,-2800,0,3959.7979746447,-69650417.957011
2800,-2200,0,3560.898762953,-54204645.886958
2800,-6300,0,6894.2004612573,-159322677.52174
2800,-9800,0,10192.153844993,-251622689.59022
2800,-1400,0,3130.4951684997,-35060664.38671
2800,-4300,0,5131.276644267,-109813680.03152
2800,-600,0,2863.5642126553,-17948114.543779
2800,-5000,0,5730.6195127578,-127843805.87612
2800,-400,0,2828.4271247462,-12188668.955399
2800,-5400,0,6082.7625302982,-139577599.63551
2800,-8400,0,8854.3774484715,-210809787.66063
2800,-7000,0,7539.2307299883,-178508857.91097
2800,-2500,0,3753.6648758247,-64501388.73264
2800,-1800,0,3328.6633954186,-44409139.545466
2800,-9200,0,9616.652224137,-232195619.46218
2800,-200,0,2807.1337695236,-3960614.3745063
2800,-1300,0,3087.0698080866,-33130923.114621
2800,-7800,0,8287.3397420403,-196487742.1858
2800,-3800,0,4720.1694884824,-96916162.98414
2800,-5200,0,5905.9292240934,-131664584.9028
2800,-6700,0,7261.5425358528,-171054720.66382
2800,-9100,0,9521.0293561148,-228920456.22273
2800,-2600,0,3820.9946349086,-66140027.461433
2800,-3100,0,4177.3197148411,-80343670.814642
2800,-3200,0,4252.0583250939,-80343670.814642
2800,-3700,0,4640.0431032481,-95233339.481118
2800,-3300,0,4327.8170016765,-85365084.466501
2800,-6400,0,6985.6996786292,-163994381.85501
2800,-2000,0,3440.9301068171,-53135746.097387
2800,-8900,0,9330.0589494386,-228920456.22273
2800,-9700,0,10096.038827184,-247932072.06996
2800,-8100,0,8570.2975444263,-204980660.60163
2800,-1900,0,3383.7848631377,-47559432.394325
2800,-7500,0,8005.6230238502,-188721623.5839
2800,-9300,0,9712.3632551506,-238467986.7868
2800,-8600,0,9044.335243676,-222823849.49545
2800,-9500,0,9904.0395798886,-241291433.75152
2800,-4700,0,5470.831746636,-120483433.88549
2800,-8300,0,8759.5661993046,-210809787.66063
2800,-8500,0,8949.3016487322,-213853658.73202
2800,-7600,0,8099.3826925266,-193962426.84759
2800,-10000,0,10384.603988598,-251622689.59022
2800,-2700,0,3889.7300677553,-69650417.957011
2800,-5300,0,5994.1638282583,-133902681.06878
2800,-5800,0,6440.4968752418,-145991057.36723
2800,-5900,0,6530.6967469023,-152359090.07279
2800,-7900,0,8381.5273071201,-204980660.60163
2800,-4100,0,4964.8766349226,-106393219.76901
2800,-6000,0,6621.1781428987,-152359090.07279
2800,-5700,0,6350.590523723,-143691842.14835
2800,-8800,0,9234.7171044922,-222823849.49545
2800,-6500,0,7077.4289116882,-166241296.79349
2800,-9600,0,10000,-247932072.06996
2800,-800,0,2912.0439557122,-21619470.411156
2800,-2900,0,4031.1288741493,-74974675.735152
2800,-6600,0,7169.379331574,-166241296.79349
2800,-2100,0,3500,-54204645.886958
2800,-5600,0,6260.9903369994,-143691842.14835
2800,-6100,0,6711.9296778199,-156883261.26458
2800,-2400,0,3687.8177829172,-60877328.491663
2800,-5100,0,5818.0752831155,-131664584.9028
2800,-9900,0,10288.34291808,-251622689.59022
2800,-4800,0,5556.9775957799,-120483433.88549
2800,-6200,0,6802.940540678,-156883261.26458
2800,-6800,0,7353.9105243401,-173555484.92386
2800,-7100,0,7632.1687612369,-180911357.23556
2800,0,0,2800,-1981979.2147107
2800,-1500,0,3176.4760348537,-39592839.302481
2800,-1200,0,3046.3092423456,-29609513.486366
2800,-7300,0,7818.5676437568,-188721623.5839
2800,-1000,0,2973.2137494637,-23782204.465236
2800,-1600,0,3224.9030993194,-39592839.302481
2800,-7700,0,8193.2899375037,-193962426.84759
2900,-1600,0,3312.0990323358,-39592839.302481
2900,-8200,0,8697.7008456258,-210809787.66063
2900,-1500,0,3264.9655434629,-37876813.384326
2900,-1200,0,3138.470965295,-29609513.486366
2900,-7300,0,7854.9347546622,-186021031.42293
2900,-10000,0,10412.0122935,-251622689.59022
2900,-6800,0,7392.5638313105,-171054720.66382
2900,-4800,0,5608.029957124,-122087108.78205
2900,-6100,0,6754.2579163073,-156883261.26458
2900,-5800,0,6484.5971347494,-149880434.76073
2900,-7100,0,7669.4197955256,-180911357.23556
2900,-8100,0,8603.487664895,-204980660.60163
2900,-6200,0,6844.705983459,-156883261.26458
2900,-6600,0,7209.0221250874,-166241296.79349
2900,-2100,0,3580.5027579936,-53135746.097387
2900,-5700,0,6395.3107821278,-143691842.14835
2900,-5900,0,6574.1919655574,-152359090.07279
2900,-8500,0,8981.0912477271,-219623309.0902
2900,-2700,0,3962.3225512318,-69516663.23592
2900,-2400,0,3764.3060449437,-60877328.491663
2900,-5300,0,6041.5229867973,-133080754.35404
2900,-5600,0,6306.346010171,-143691842.14835
2900,-9500,0,9932.7740334712,-241291433.75152
2900,-1900,0,3466.9871646719,-49448219.806544
2900,-8600,0,9075.7919764613,-219623309.0902
2900,-2000,0,3522.7829907617,-49448219.806544
2900,-6500,0,7117.5838597097,-166241296.79349
2900,-9700,0,10124.228365658,-247932072.06996
2900,-6400,0,7026.3788682365,-166241296.79349
2900,-2900,0,4101.219330882,-74974675.735152
2900,-3700,0,4701.0637094173,-95233339.481118
2900,0,0,2900,-2146513.0314332
2900,-5100,0,5866.8560575491,-131664584.9028
2900,-3100,0,4244.9970553582,-81921734.895804
2900,-2600,0,3894.8684188301,-64501388.73264
2900,-9600,0,10028.459502835,-247932072.06996
2900,-800,0,3008.3217912983,-21619470.411156
2900,-7800,0,8321.6584885466,-196487742.1858
2900,-9100,0,9550.916186419,-228920456.22273
2900,-200,0,2906.8883707497,-3960614.3745063
2900,-8800,0,9265.5275079188,-222823849.49545
2900,-1800,0,3413.2096331752,-44460258.52696
2900,-400,0,2927.4562336609,-11362977.049012
2900,-4100,0,5021.9518117959,-104813675.42133
2900,-6000,0,6664.0828326185,-152359090.07279
2900,-5000,0,5780.1384066474,-125614167.79074
2900,-1400,0,3220.2484376209,-34583784.208623
2900,-9900,0,10316.006979447,-251622689.59022
2900,-600,0,2961.4185789922,-16388062.976457
2900,-3200,0,4318.5645763378,-81921734.895804
2900,-2200,0,3640.0549446403,-55201980.679325
2900,-1000,0,3067.5723300356,-23782204.465236
2900,-1700,0,3361.5472627943,-42826345.789191
2900,-4000,0,4940.6477308143,-101537788.41514
2900,-6900,0,7484.6509604657,-178508857.91097
2900,-7600,0,8134.4944526381,-196487742.1858
2900,-500,0,2942.7877939124,-13007241.893267
2900,-9000,0,9455.6861200021,-228920456.22273
2900,-8400,0,8886.5066252156,-213650492.36148
2900,-4700,0,5522.6805085936,-122087108.78205
2900,-3500,0,4545.3272709454,-90192076.901211
2900,-7500,0,8041.1441971899,-193962426.84759
2900,-9300,0,9741.663102366,-241291433.75152
2900,-9400,0,9837.1743910536,-241291433.75152
2900,-4400,0,5269.7248505022,-111605641.45223
2900,-7900,0,8415.4619599877,-201996718.79971
2900,-8900,0,9360.5555390692,-228920456.22273
2900,-8300,0,8792.0418561333,-210809787.66063
2900,-4200,0,5103.9200620699,-104813675.42133
2900,-7400,0,7947.9557120054,-186021031.42293
2900,-7200,0,7762.08734813,-186021031.42293
2900,-4500,0,5353.5035257297,-115130372.59539
2900,-3300,0,4393.1765272978,-85365084.466501
2900,-8000,0,8509.4065598019,-201996718.79971
2900,-6700,0,7300.6848993776,-171054720.66382
2900,-3400,0,4468.7805943009,-85365084.466501
2900,-7700,0,8228.0009722897,-196487742.1858
2900,-5200,0,5953.9902586417,-133080754.35404
2900,-900,0,3036.4452901378,-23782204.465236
2900,-4600,0,5437.830449729,-115130372.59539
2900,-3900,0,4860.0411520891,-101537788.41514
2900,-1300,0,3178.0497164141,-34583784.208623
2900,-3600,0,4622.7697325305,-92032208.143681
2900,-8700,0,9170.6052144883,-222823849.49545
2900,-3000,0,4172.529209005,-74974675.735152
2900,-3800,0,4780.1673610868,-95233339.481118
2900,-1100,0,3101.6124838542,-27511779.111513
2900,-4900,0,5693.8563381947,-125614167.79074
2900,-9200,0,9646.2427918853,-231454527.44903
2900,-5400,0,6129.4371682888,-137116298.73038
2900,-100,0,2901.7236257094,-3960614.3745063
2900,-7000,0,7576.9386958058,-180911357.23556
2900,-2500,0,3828.8379438153,-64501388.73264
2900,-700,0,2983.2867780353,-16388062.976457
2900,-5500,0,6217.7166226839,-139577599.63551
2900,-300,0,2915.4759474227,-7181415.2756436
2900,-2300,0,3701.3511046643,-58846417.156196
2900,-2800,0,4031.1288741493,-71537544.491428
2900,-4300,0,5186.520991956,-111605641.45223
2900,-6300,0,6935.4163537599,-159066744.62092
2900,-9800,0,10220.078277587,-247932072.06996
3000,0,0,3000,-2146513.0314332
3000,-1500,0,3354.1019662497,-37876813.384326
3000,-1200,0,3231.0988842807,-29277519.761459
3000,-2300,0,3780.2116342872,-58846417.156196
3000,-7300,0,7892.4014089503,-186021031.42293
3000,-2800,0,4103.6569057366,-69516663.23592
3000,-7900,0,8450.4437753292,-201996718.79971
3000,-5500,0,6264.9820430708,-138517929.45653
3000,-8100,0,8637.7080293328,-201996718.79971
3000,-6800,0,7432.3616704248,-173387082.39676
3000,-4800,0,5660.388679234,-122087108.78205
3000,-3400,0,4534.3136195019,-86887030.691524
3000,-6100,0,6797.7937597429,-159066744.62092
3000,-700,0,3080.5843601499,-18061831.143274
3000,-2500,0,3905.1248379533,-65988555.68895
3000,-5800,0,6529.9310869258,-149880434.76073
3000,-7000,0,7615.7731058639,-178314478.10923
3000,-7100,0,7707.7882690173,-180911357.23556
3000,-6600,0,7249.8275841567,-166241296.79349
3000,-5400,0,6177.3780845922,-137116298.73038
3000,-6200,0,6887.670143089,-159066744.62092
3000,-9800,0,10248.902380255,-247932072.06996
3000,-2100,0,3661.9666847201,-55201980.679325
3000,-1100,0,3195.3090617341,-27511779.111513
3000,-100,0,3001.6662039607,-2146513.0314332
3000,-9900,0,10344.56378974,-247932072.06996
3000,-4900,0,5745.4329688893,-125614167.79074
3000,-5900,0,6618.9122973492,-149880434.76073
3000,-3800,0,4841.4873747641,-96490239.928618
3000,-5700,0,6441.2731660752,-145476693.04026
3000,-3000,0,4242.6406871193,-76449504.334455
3000,-8500,0,9013.87818866,-219623309.0902
3000,-6300,0,6977.8220097678,-159066744.62092
3000,-8700,0,9202.7169901068,-219623309.0902
3000,-6700,0,7340.9808608932,-171054720.66382
3000,-5100,0,5916.9248769948,-130287749.50319
3000,-2400,0,3841.8745424597,-58846417.156196
3000,-4300,0,5243.0906915673,-109763267.97195
3000,-1300,0,3269.5565448544,-32771458.830628
3000,-3600,0,4686.149805544,-90192076.901211
3000,-2700,0,4036.0872141221,-69516663.23592
3000,-3900,0,4920.365840057,-99688215.520291
3000,-9200,0,9676.7763227224,-237581235.70799
3000,-4100,0,5080.3543183522,-106361899.18734
3000,-4600,0,5491.8120870984,-116528244.31487
3000,-5300,0,6090.155991434,-137116298.73038
3000,-9500,0,9962.4294225856,-241291433.75152
3000,-5200,0,6003.3324079215,-133080754.35404
3000,-7700,0,8263.7763764516,-196487742.1858
3000,-1900,0,3551.0561809129,-47899981.518511
3000,-6500,0,7158.9105316382,-163786784.03927
3000,-1600,0,3400,-39251548.866557
3000,-8600,0,9108.2380293886,-219623309.0902
3000,-3300,0,4459.8206241956,-86887030.691524
3000,-1000,0,3162.2776601684,-23782204.465236
3000,-5600,0,6352.9520697074,-145476693.04026
3000,-6400,0,7068.2388188289,-163786784.03927
3000,-8200,0,8731.5519811772,-213650492.36148
3000,-9700,0,10153.324578679,-247932072.06996
3000,-4500,0,5408.326913196,-116528244.31487
3000,-2900,0,4172.529209005,-76449504.334455
3000,-3700,0,4763.4021455258,-96490239.928618
3000,-7200,0,7800,-186021031.42293
3000,-300,0,3014.9626863363,-8553853.3247961
3000,-7400,0,7984.9859110709,-188485817.73181
3000,-8900,0,9392.0178875469,-228920456.22273
3000,-900,0,3132.0919526732,-23782204.465236
3000,-3100,0,4313.9309220246,-79969570.952664
3000,-4200,0,5161.3951602256,-106361899.18734
3000,-2600,0,3969.8866482558,-65988555.68895
3000,-9600,0,10057.832768544,-247932072.06996
3000,-8300,0,8825.5311454892,-213650492.36148
3000,-2000,0,3605.551275464,-49637360.610155
3000,-7800,0,8357.0329663105,-196487742.1858
3000,-4400,0,5325.4107822777,-109763267.97195
3000,-9300,0,9771.8984849414,-237581235.70799
3000,-9400,0,9867.1171068352,-241291433.75152
3000,-800,0,3104.834939252,-21752703.342168
3000,-9100,0,9581.7534929678,-231454527.44903
3000,-8400,0,8919.6412483911,-213650492.36148
3000,-7500,0,8077.7472107018,-193724123.07208
3000,-3500,0,4609.7722286464,-90192076.901211
3000,-8800,0,9297.3114393356,-222823849.49545
3000,-1800,0,3498.5711369072,-44460258.52696
3000,-4700,0,5575.8407437803,-119921614.44359
3000,-200,0,3006.6592756746,-2146513.0314332
3000,-7600,0,8170.6792863262,-196487742.1858
3000,-500,0,3041.3812651491,-11362977.049012
3000,-6000,0,6708.2039324994,-149880434.76073
3000,-6900,0,7523.9617223907,-178314478.10923
3000,-1400,0,3310.5890714494,-34583784.208623
3000,-1700,0,3448.1879299133,-44460258.52696
3000,-4000,0,5000,-99688215.520291
3000,-5000,0,5830.9518948453,-126576186.40861
3000,-400,0,3026.5491900843,-11362977.049012
3000,-2200,0,3720.2150475477,-55201980.679325
3000,-8000,0,8544.0037453175,-201996718.79971
3000,-600,0,3059.4117081557,-16388062.976457
3000,-3200,0,4386.3424398923,-79969570.952664
3000,-10000,0,10440.306508911,-251622689.59022
3000,-9000,0,9486.8329805051,-231454527.44903
3100,-9000,0,9518.9285111298,-231454527.44903
3100,-6100,0,6842.5141578224,-156602025.03192
3100,-3200,0,4455.3338819891,-81564055.350779
3100,-4400,0,5382.3786563192,-111470192.36717
3100,-8000,0,8579.6270315207,-204708227.12363
3100,-600,0,3157.5306807694,-15705759.362972
3100,-900,0,3228.0024783138,-21752703.342168
3100,-7500,0,8115.4174261094,-193724123.07208
3100,-400,0,3125.6999216176,-11362977.049012
3100,-2200,0,3801.3155617496,-53231079.262271
3100,-6000,0,6753.5176019612,-151903004.04165
3100,-4700,0,5630.2753041037,-120339773.65872
3100,-1400,0,3401.470270339,-34416863.2234
3100,-6900,0,7564.390259631,-178314478.10923
3100,-6300,0,7021.3958726168,-159066744.62092
3100,-200,0,3106.4449134018,-4240923.0475823
3100,-7600,0,8207.9230015882,-193724123.07208
3100,-1800,0,3584.689665787,-43997181.66872
3100,-5000,0,5883.0264320331,-126576186.40861
3100,-800,0,3201.5621187164,-21752703.342168
3100,-9100,0,9613.5321292437,-231454527.44903
3100,-3500,0,4675.4678910244,-91558217.990499
3100,-8400,0,8953.7701556383,-213650492.36148
3100,-8800,0,9330.0589494386,-222473024.58301
3100,-9400,0,9897.9795918157,-237581235.70799
3100,-9300,0,9803.060746522,-237581235.70799
3100,-7800,0,8393.4498270973,-196487742.1858
3100,-8300,0,8860.0225733347,-210535161.23121
3100,-4200,0,5220.1532544553,-106361899.18734
3100,-9600,0,10088.111815399,-247932072.06996
3100,-2000,0,3689.1733491393,-49637360.610155
3100,-3100,0,4384.0620433566,-81564055.350779
3100,-2600,0,4045.9856648288,-63957448.635154
3100,-7200,0,7839.0050389064,-188485817.73181
3100,-4000,0,5060.632371552,-101075865.8812
3100,-2900,0,4244.9970553582,-74558238.498622
3100,-3700,0,4827.0073544589,-94660290.067756
3100,-300,0,3114.4823004795,-7474076.2354464
3100,-10000,0,10469.479452198,-251296224.5459
3100,-8900,0,9424.4363226667,-228216501.38702
3100,-9700,0,10183.319694481,-247932072.06996
3100,-8200,0,8766.4131775772,-210535161.23121
3100,-6400,0,7111.2586790244,-163786784.03927
3100,-4500,0,5464.4304369257,-114745604.54629
3100,-5600,0,6400.7812023221,-142819353.56582
3100,-7400,0,8023.0916734137,-188485817.73181
3100,-3600,0,4750.7894080879,-91558217.990499
3100,-8600,0,9141.6628684283,-219623309.0902
3100,-4900,0,5798.2756057297,-126576186.40861
3100,-5200,0,6053.9243470661,-130287749.50319
3100,-6500,0,7201.3887549555,-163786784.03927
3100,-7700,0,8300.6023877789,-193724123.07208
3100,-1900,0,3635.9317925396,-49637360.610155
3100,-6200,0,6931.8107302493,-159066744.62092
3100,-4600,0,5547.0712993435,-114745604.54629
3100,-9500,0,9992.9975482835,-241291433.75152
3100,-5300,0,6140.0325732035,-138517929.45653
3100,-3300,0,4527.6925690687,-85023782.255376
3100,-9200,0,9708.2439194738,-237581235.70799
3100,-2700,0,4110.9609582189,-71064212.341077
3100,-3900,0,4981.9674828325,-101075865.8812
3100,-5100,0,5968.2493245507,-130287749.50319
3100,-8700,0,9235.7999112151,-219623309.0902
3100,-3000,0,4313.9309220246,-74558238.498622
3100,-8500,0,9047.651629014,-219623309.0902
3100,-2400,0,3920.4591567825,-60439448.150543
3100,-5700,0,6488.4512790033,-145476693.04026
3100,-6700,0,7382.4115301167,-173387082.39676
3100,-100,0,3101.6124838542,-4240923.0475823
3100,-4100,0,5140.0389103586,-104491664.62699
3100,-5900,0,6664.8330811807,-149880434.76073
3100,-9900,0,10374.005976478,-251296224.5459
3100,-3800,0,4904.0799340957,-94660290.067756
3100,-2100,0,3744.3290453698,-53231079.262271
3100,-9800,0,10278.618584226,-247932072.06996
3100,-7100,0,7747.2575792986,-178314478.10923
3100,-5400,0,6226.5560304232,-138517929.45653
3100,-7000,0,7655.7168181693,-178314478.10923
3100,-6600,0,7291.7761896537,-166028189.81212
3100,-1100,0,3289.3768406797,-29277519.761459
3100,-8100,0,8672.9464428186,-204708227.12363
3100,-700,0,3178.0497164141,-18061831.143274
3100,-500,0,3140.0636936215,-12409050.023932
3100,-4800,0,5714.0178508647,-120339773.65872
3100,-1300,0,3361.5472627943,-32771458.830628
3100,-5800,0,6576.473218983,-149880434.76073
3100,-4300,0,5300.9433122794,-111470192.36717
3100,-6800,0,7473.2857566134,-173387082.39676
3100,-3400,0,4601.0868281309,-85023782.255376
3100,0,0,3100,-2146513.0314332
3100,-5500,0,6313.4776470658,-138517929.45653
3100,-1000,0,3257.2994949805,-23607300.727997
3100,-7300,0,7930.9520235593,-188485817.73181
3100,-1200,0,3324.1540277189,-29277519.761459
3100,-7900,0,8486.4598037108,-204708227.12363
3100,-2500,0,3982.461550348,-63957448.635154
3100,-2800,0,4177.3197148411,-71064212.341077
3100,-2300,0,3860.0518131238,-60439448.150543
3100,-1600,0,3488.5527085025,-42562475.340395
3100,-1700,0,3535.5339059327,-42562475.340395
3100,-1500,0,3443.8350715445,-39251548.866557
3200,-8200,0,8802.2724338662,-210535161.23121
3200,-6800,0,7515.3176912224,-170842714.61056
3200,-1800,0,3671.5119501372,-47608719.466384
3200,-8300,0,8895.5044826024,-210535161.23121
3200,-1700,0,3623.5341863987,-43997181.66872
3200,-4800,0,5768.8820407424,-123532324.50332
3200,-5600,0,6449.8061986388,-142819353.56582
3200,-6300,0,7066.1163307718,-156602025.03192
3200,-8100,0,8709.1905479212,-204708227.12363
3200,-100,0,3201.5621187164,-2270184.0223133
3200,-1900,0,3721.5588131857,-47608719.466384
3200,-4400,0,5440.5882034942,-111470192.36717
3200,-9900,0,10404.326023342,-251296224.5459
3200,-10000,0,10499.523798725,-251296224.5459
3200,-4300,0,5360.037313303,-109602285.42429
3200,-8400,0,8988.8820216977,-210535161.23121
3200,-500,0,3238.8269481403,-12409050.023932
3200,-3600,0,4816.6378315169,-90095373.065975
3200,-8000,0,8616.2636914152,-204708227.12363
3200,-5500,0,6363.1753079732,-142819353.56582
3200,-1600,0,3577.7087639997,-41282664.865171
3200,-2000,0,3773.5924528226,-47608719.466384
3200,-9500,0,10024.470060806,-237581235.70799
3200,-8500,0,9082.4005637276,-219623309.0902
3200,-1500,0,3534.1194094145,-37570095.539313
3200,-7900,0,8523.496934944,-204708227.12363
3200,-2100,0,3827.5318418009,-54976869.014234
3200,-8600,0,9176.0557975636,-222473024.58301
3200,-3100,0,4455.3338819891,-79736356.01737
3200,-600,0,3255.7641192199,-15705759.362972
3200,-5700,0,6536.8187981617,-144220293.86869
3200,-6400,0,7155.4175279993,-166028189.81212
3200,-3200,0,4525.4833995939,-79736356.01737
3200,-3700,0,4891.829923454,-95424940.261669
3200,-7800,0,8430.8955633432,-196236828.87107
3200,-200,0,3206.2439083763,-4240923.0475823
3200,-1400,0,3492.8498393146,-34416863.2234
3200,-2200,0,3883.2975677895,-54976869.014234
3200,-6100,0,6888.3960397178,-156602025.03192
3200,-5000,0,5936.3288318623,-130287749.50319
3200,-4900,0,5852.3499553598,-123532324.50332
3200,-3500,0,4742.3622805518,-90095373.065975
3200,-4200,0,5280.1515129776,-106009058.95511
3200,-4500,0,5521.7750769114,-117027093.72926
3200,-6900,0,7605.9187479226,-178314478.10923
3200,-7700,0,8338.4650865732,-196236828.87107
3200,-8700,0,9269.8435801258,-222473024.58301
3200,-9800,0,10309.219175088,-251296224.5459
3200,-5400,0,6276.9419305901,-135862799.8218
3200,-2300,0,3940.8120990476,-58533545.85165
3200,-1300,0,3453.9832078341,-34416863.2234
3200,-7600,0,8246.2112512353,-193724123.07208
3200,-8800,0,9363.7599285757,-222473024.58301
3200,-9400,0,9929.7532698451,-237581235.70799
3200,-3900,0,5044.7993022518,-98655718.112843
3200,-6500,0,7244.998274672,-166028189.81212
3200,-6200,0,6977.105417005,-156602025.03192
3200,-2400,0,4000,-58533545.85165
3200,-5800,0,6624.1980646717,-148930496.32184
3200,-5100,0,6020.7972893961,-131618296.46608
3200,-1200,0,3417.601498127,-27365419.611324
3200,-4100,0,5200.9614495783,-106009058.95511
3200,-7500,0,8154.1400527585,-193724123.07208
3200,-8900,0,9457.8010129205,-228216501.38702
3200,-3000,0,4386.3424398923,-76261751.528314
3200,-700,0,3275.6678708318,-15705759.362972
3200,-2500,0,4060.7881008494,-65630105.055114
3200,-3400,0,4669.0470119715,-86881061.007544
3200,-1100,0,3383.7848631377,-27365419.611324
3200,-4600,0,5603.5702904488,-117027093.72926
3200,-7400,0,8062.2577482985,-188485817.73181
3200,-9000,0,9551.9631490076,-228216501.38702
3200,-7000,0,7696.7525619575,-180684147.24223
3200,-2600,0,4123.1056256177,-65630105.055114
3200,-300,0,3214.0317359976,-7474076.2354464
3200,-9700,0,10214.205793893,-251296224.5459
3200,0,0,3200,-2270184.0223133
3200,-3800,0,4967.8969393497,-95424940.261669
3200,-5300,0,6191.1226768656,-135862799.8218
3200,-1000,0,3352.610922848,-23607300.727997
3200,-5900,0,6711.9296778199,-151903004.04165
3200,-6600,0,7334.8483283569,-166028189.81212
3200,-7300,0,7970.5708703957,-185761093.45634
3200,-2700,0,4186.8842830917,-69205952.548908
3200,-4000,0,5122.4993899463,-101075865.8812
3200,-6700,0,7424.9579123386,-170842714.61056
3200,-9100,0,9646.2427918853,-231454527.44903
3200,-400,0,3224.9030993194,-9721012.2803395
3200,-5200,0,6105.7350089895,-131618296.46608
3200,-900,0,3324.1540277189,-23607300.727997
3200,-7200,0,7879.0862414369,-185761093.45634
3200,-2800,0,4252.0583250939,-69205952.548908
3200,-9200,0,9740.6365295087,-237581235.70799
3200,-3300,0,4596.7379738245,-86881061.007544
3200,-4700,0,5685.9475903318,-120339773.65872
3200,-800,0,3298.4845004941,-23607300.727997
3200,-9300,0,9835.1410767716,-237581235.70799
3200,-7100,0,7787.810988975,-180684147.24223
3200,-2900,0,4318.5645763378,-76261751.528314
3200,-6000,0,6800,-151903004.04165
3200,-9600,0,10119.288512539,-247932072.06996
3300,-7500,0,8193.9001702486,-196236828.87107
3300,-2300,0,4022.4370722238,-60213425.523147
3300,-5400,0,6328.5069329187,-137282661.43956
3300,-2900,0,4393.1765272978,-74519640.763479
3300,-8200,0,8839.117603019,-210535161.23121
3300,-9600,0,10151.354589413,-247812615.54405
3300,-9800,0,10340.696301507,-251296224.5459
3300,-1300,0,3546.8295701936,-33084561.275373
3300,-8700,0,9304.8374515625,-222473024.58301
3300,-6000,0,6847.627326308,-151903004.04165
3300,-7600,0,8285.5295545909,-196236828.87107
3300,-6800,0,7558.4389922788,-173164477.28751
3300,-1800,0,3758.9892258425,-47608719.466384
3300,-9400,0,9962.4294225856,-237327817.42283
3300,-8800,0,9398.4041198493,-222473024.58301
3300,-6900,0,7648.5292703892,-178100842.19082
3300,-7100,0,7829.4316524254,-180684147.24223
3300,-3900,0,5108.8159097779,-100071862.74846
3300,-6500,0,7289.718787443,-166028189.81212
3300,-1700,0,3712.1422386541,-41282664.865171
3300,-9300,0,9868.1305220391,-237327817.42283
3300,-800,0,3395.5853692699,-21467264.076243
3300,-7700,0,8377.3504164503,-196236828.87107
3300,-4800,0,5824.9463516843,-124492534.49728
3300,-6200,0,7023.5318750612,-158792748.21803
3300,-2400,0,4080.4411526206,-60213425.523147
3300,-4700,0,5742.8216061445,-120339773.65872
3300,-4500,0,5580.3225713215,-115465884.50156
3300,-6300,0,7111.9617546778,-158792748.21803
3300,-4200,0,5341.3481444295,-106009058.95511
3300,-5100,0,6074.537019395,-128906512.34911
3300,-9200,0,9773.9449558507,-237327817.42283
3300,-5600,0,6500,-144220293.86869
3300,-3300,0,4666.9047558312,-85587172.138156
3300,-5800,0,6673.0802482811,-148930496.32184
3300,-3500,0,4810.4053883223,-90095373.065975
3300,-1200,0,3511.4099732159,-29561461.810322
3300,-8100,0,8746.427842268,-204708227.12363
3300,-10000,0,10530.4320899,-251296224.5459
3300,-8300,0,8931.965069345,-210535161.23121
3300,-4900,0,5907.6221950968,-124492534.49728
3300,-2800,0,4327.8170016765,-70964664.488463
3300,-100,0,3301.5148038438,-2270184.0223133
3300,-4100,0,5263.0789467763,-104015770.01271
3300,-7200,0,7920.2272694665,-185761093.45634
3300,-5000,0,5990.8263203001,-128906512.34911
3300,-6100,0,6935.4163537599,-156602025.03192
3300,-1900,0,3807.886552932,-49237353.90242
3300,-5200,0,6158.7336360651,-131618296.46608
3300,-900,0,3420.5262752974,-21467264.076243
3300,-3000,0,4459.8206241956,-76261751.528314
3300,-8900,0,9492.1019800674,-228216501.38702
3300,-2200,0,3966.1064030104,-54976869.014234
3300,-1400,0,3584.689665787,-35419152.913377
3300,-400,0,3324.1540277189,-9721012.2803395
3300,-9900,0,10435.516278556,-251296224.5459
3300,-4400,0,5500,-111323534.10919
3300,-700,0,3373.4255586866,-17282006.873599
3300,-2500,0,4140.0483088969,-63787306.055718
3300,-4300,0,5420.3320931471,-109602285.42429
3300,-200,0,3306.0550509633,-4258250.6289058
3300,-9100,0,9679.8760322641,-231137436.75958
3300,-7800,0,8469.3565280959,-196236828.87107
3300,-500,0,3337.6638536557,-12409050.023932
3300,-6700,0,7468.6009399351,-170842714.61056
3300,-4000,0,5185.5568649857,-100071862.74846
3300,0,0,3300,-2270184.0223133
3300,-3400,0,4738.1430961929,-85587172.138156
3300,-8400,0,9024.9653738948,-213328280.30091
3300,-1100,0,3478.5054261852,-29561461.810322
3300,-3600,0,4883.6461788299,-92573295.725076
3300,-3700,0,4957.8221024962,-92573295.725076
3300,-4600,0,5661.2719418873,-115465884.50156
3300,-2700,0,4263.8011210656,-69205952.548908
3300,-3200,0,4596.7379738245,-81922702.517008
3300,-7400,0,8102.4687595819,-185761093.45634
3300,-7300,0,8011.2421009479,-185761093.45634
3300,-6400,0,7200.6944109579,-163530292.70907
3300,-8000,0,8653.900854528,-201726135.62343
3300,-5500,0,6414.0470843298,-141392378.68929
3300,-9000,0,9585.9271852023,-228216501.38702
3300,-1600,0,3667.4241641784,-41282664.865171
3300,-5700,0,6586.34952003,-144220293.86869
3300,-6600,0,7379.0243257493,-166028189.81212
3300,-2600,0,4201.19030752,-65630105.055114
3300,-9500,0,10056.83846942,-237327817.42283
3300,-2000,0,3858.7562763149,-49237353.90242
3300,-600,0,3354.1019662497,-17282006.873599
3300,-5900,0,6760.1775124622,-148930496.32184
3300,-300,0,3313.6083051562,-8521674.3560115
3300,-8600,0,9211.4059730315,-222473024.58301
3300,-1000,0,3448.1879299133,-27365419.611324
3300,-3100,0,4527.6925690687,-79736356.01737
3300,-2100,0,3911.5214431216,-52996994.673424
3300,-8500,0,9118.1138400439,-219293810.80509
3300,-7000,0,7738.8629655783,-180684147.24223
3300,-5300,0,6243.3965115152,-135862799.8218
3300,-9700,0,10245.974819411,-251296224.5459
3300,-7900,0,8561.5419172016,-201726135.62343
3300,-3800,0,5032.8918128646,-98655718.112843
3300,-1500,0,3624.9137920784,-38187112.418889
3400,-1500,0,3716.1808352124,-38187112.418889
3400,-7900,0,8600.5813756978,-201726135.62343
3400,-9000,0,9620.8107766446,-231137436.75958
3400,-8500,0,9154.7801721287,-219293810.80509
3400,-3800,0,5099.0195135928,-97730745.243992
3400,-5300,0,6296.8245965725,-134792689.72584
3400,-9700,0,10278.618584226,-247812615.54405
3400,-3100,0,4601.0868281309,-80286353.234073
3400,-8400,0,9062.0086073674,-213328280.30091
3400,-2100,0,3996.2482405376,-54708835.394731
3400,-2600,0,4280.1869118065,-65559991.565071
3400,-1000,0,3544.0090293339,-27622172.387209
3400,-7000,0,7782.0305833375,-178100842.19082
3400,-300,0,3413.2096331752,-8521674.3560115
3400,-2000,0,3944.6165846632,-49237353.90242
3400,-5900,0,6809.5521144933,-148930496.32184
3400,-9500,0,10090.094152187,-240939863.68084
3400,-6600,0,7424.2844773082,-170674506.30326
3400,-1600,0,3757.6588456112,-42757022.45789
3400,-5700,0,6637.017402418,-144220293.86869
3400,-600,0,3452.5353003264,-15028128.538667
3400,-7300,0,8052.9497701153,-188269843.64352
3400,-8000,0,8692.5255248403,-201726135.62343
3400,-7400,0,8143.7092286009,-188269843.64352
3400,-6400,0,7247.0683727974,-163530292.70907
3400,-8600,0,9247.7024173575,-219293810.80509
3400,-6700,0,7513.3215025047,-173164477.28751
3400,-4600,0,5720.13985843,-117537612.85115
3400,-2700,0,4341.6586692185,-69156948.815184
3400,-5500,0,6466.0652641309,-141392378.68929
3400,-700,0,3471.310991542,-17282006.873599
3400,-3600,0,4951.767361256,-91891896.402734
3400,-3700,0,5024.9378105604,-94048713.078006
3400,-4000,0,5249.7618993627,-100071862.74846
3400,-3400,0,4808.3261120685,-85587172.138156
3400,-7800,0,8508.8189544731,-201726135.62343
3400,-500,0,3436.5680554879,-10660145.847573
3400,-1100,0,3573.5136770411,-29561461.810322
3400,-3200,0,4669.0470119715,-81922702.517008
3400,-1400,0,3676.95526217,-35419152.913377
3400,-9100,0,9714.4222679478,-231137436.75958
3400,-200,0,3405.8772731853,-4258250.6289058
3400,-2500,0,4220.1895692018,-63787306.055718
3400,-4300,0,5481.7880294663,-111323534.10919
3400,-4400,0,5560.5755097831,-111323534.10919
3400,-400,0,3423.4485537247,-8521674.3560115
3400,-9900,0,10467.568963231,-251296224.5459
3400,-8900,0,9527.3291115611,-228216501.38702
3400,-1900,0,3894.8684188301,-47078779.213796
3400,-900,0,3517.1010790138,-21467264.076243
3400,-3000,0,4534.3136195019,-76370794.42965
3400,0,0,3400,-2270184.0223133
3400,-7500,0,8234.6827504161,-193521577.00546
3400,-100,0,3401.470270339,-4258250.6289058
3400,-7200,0,7962.4116949578,-185761093.45634
3400,-5000,0,6046.4865831324,-128906512.34911
3400,-8300,0,8969.3923985965,-213328280.30091
3400,-4100,0,5326.3495942343,-104015770.01271
3400,-4900,0,5964.0590204994,-124492534.49728
3400,-2800,0,4404.543109109,-70964664.488463
3400,-6100,0,6983.5521047673,-156232114.37564
3400,-8100,0,8784.645695758,-201726135.62343
3400,-1200,0,3605.551275464,-29561461.810322
3400,-2200,0,4049.6913462633,-54708835.394731
3400,-3500,0,4879.5491595023,-88145683.539262
3400,-5600,0,6551.3357416637,-141392378.68929
3400,-4200,0,5403.7024344425,-105580787.14832
3400,-5800,0,6723.0945255886,-148930496.32184
3400,-3300,0,4738.1430961929,-85587172.138156
3400,-9200,0,9808.1598681914,-237327817.42283
3400,-6300,0,7158.9105316382,-158792748.21803
3400,-9300,0,9902.0199959402,-237327817.42283
3400,-2400,0,4161.730409337,-60213425.523147
3400,-4700,0,5800.8620049093,-121931202.76024
3400,-5100,0,6129.4371682888,-128906512.34911
3400,-4500,0,5640.0354608814,-115465884.50156
3400,-3900,0,5173.9733281106,-100071862.74846
3400,-4800,0,5882.1764679411,-121931202.76024
3400,-6200,0,7071.0678118655,-158792748.21803
3400,-7700,0,8417.2442046076,-196236828.87107
3400,-800,0,3492.8498393146,-21467264.076243
3400,-6500,0,7335.5299740373,-163530292.70907
3400,-1700,0,3801.3155617496,-42757022.45789
3400,-7100,0,7872.1026416073,-178100842.19082
3400,-6000,0,6896.3758598267,-151041052.63793
3400,-8800,0,9433.9811320566,-222473024.58301
3400,-6800,0,7602.6311234993,-173164477.28751
3400,-1800,0,3847.0768123343,-47078779.213796
3400,-9400,0,9995.9991996798,-237327817.42283
3400,-5200,0,6212.8898268036,-130623030.61323
3400,-7600,0,8325.8633185995,-193521577.00546
3400,-6900,0,7692.2038454529,-178100842.19082
3400,-10000,0,10562.196741209,-251296224.5459
3400,-8700,0,9340.7708461347,-219293810.80509
3400,-8200,0,8876.9364084689,-213328280.30091
3400,-1300,0,3640.0549446403,-33084561.275373
3400,-5400,0,6381.2224534175,-137282661.43956
3400,-9800,0,10373.041983912,-247812615.54405
3400,-9600,0,10184.301645179,-247812615.54405
3400,-2900,0,4468.7805943009,-74519640.763479
3400,-2300,0,4104.8751503548,-58359986.069596
3500,-2900,0,4545.3272709454,-74619075.320211
3500,-9600,0,10218.121158021,-247812615.54405
3500,-8200,0,8915.716460274,-209883145.19252
3500,-2300,0,4188.0783182744,-58359986.069596
3500,-6900,0,7736.9244535539,-178100842.19082
3500,-5200,0,6268.1735776859,-130623030.61323
3500,-1800,0,3935.7337308309,-47078779.213796
3500,-9800,0,10406.248123123,-247812615.54405
3500,-4700,0,5860.0341295934,-121931202.76024
3500,-1300,0,3733.6309405189,-36110697.548524
3500,-5400,0,6435.0602172785,-136686442.72995
3500,-1700,0,3891.0152916687,-42757022.45789
3500,-7100,0,7915.8069708653,-180672657.01126
3500,-8700,0,9377.6329636001,-219293810.80509
3500,-9400,0,10030.453628825,-240939863.68084
3500,-6800,0,7647.8755219996,-173164477.28751
3500,-7600,0,8367.1978583036,-193521577.00546
3500,-8800,0,9470.4804524375,-222174354.75037
3500,-6500,0,7382.4115301167,-165831217.14568
3500,-800,0,3590.2646142032,-23312847.836669
3500,-7700,0,8458.1321815162,-193521577.00546
3500,-9200,0,9843.2718137822,-237327817.42283
3500,-4500,0,5700.8771254957,-117537612.85115
3500,-6300,0,7206.9410986909,-158792748.21803
3500,-2400,0,4243.8190347846,-60128462.184964
3500,-9300,0,9936.8002898317,-237327817.42283
3500,-3300,0,4810.4053883223,-82154047.306044
3500,-5600,0,6603.7867924396,-141036738.20234
3500,-8100,0,8823.8313673823,-204106502.59231
3500,-5800,0,6774.215821776,-151041052.63793
3500,-4800,0,5940.5386961117,-121931202.76024
3500,-2200,0,4134.0053217189,-54708835.394731
3500,-6100,0,7032.7803890069,-156232114.37564
3500,-10000,0,10594.810050209,-251296224.5459
3500,-2800,0,4482.186966203,-70967482.288443
3500,-3500,0,4949.7474683058,-88254910.380302
3500,-6000,0,6946.2219947249,-151041052.63793
3500,-6200,0,7119.691004531,-156232114.37564
3500,-7200,0,8005.6230238502,-185780385.60212
3500,-1200,0,3700,-27622172.387209
3500,-100,0,3501.4282800023,-2164119.4462495
3500,-8300,0,9007.7744199108,-213328280.30091
3500,-4100,0,5390.7327887774,-105580787.14832
3500,-4900,0,6021.6276869298,-121931202.76024
3500,-1900,0,3982.461550348,-47078779.213796
3500,-5100,0,6185.4668376768,-130623030.61323
3500,-5000,0,6103.2778078669,-130623030.61323
3500,-3000,0,4609.7722286464,-76370794.42965
3500,-9900,0,10500.476179679,-247812615.54405
3500,-7500,0,8276.4726786234,-193521577.00546
3500,-8900,0,9563.4721728042,-228268726.71097
3500,-600,0,3551.0561809129,-15028128.538667
3500,-400,0,3522.7829907617,-10660145.847573
3500,-900,0,3613.8621999185,-23312847.836669
3500,-500,0,3535.5339059327,-10660145.847573
3500,-200,0,3505.7096285916,-4258250.6289058
3500,-2500,0,4301.1626335213,-65559991.565071
3500,-4300,0,5544.3665102516,-109304602.25695
3500,-3200,0,4742.3622805518,-80286353.234073
3500,-9100,0,9749.8717940289,-231137436.75958
3500,-1400,0,3769.6153649942,-36110697.548524
3500,-4000,0,5315.0729063673,-103457434.17231
3500,-4200,0,5467.1747731347,-105580787.14832
3500,-1100,0,3668.7872655688,-27622172.387209
3500,-3600,0,5020.9560842533,-94048713.078006
3500,-3400,0,4879.5491595023,-88254910.380302
3500,-7800,0,8549.2689745966,-201726135.62343
3500,-4400,0,5622.2771187482,-109304602.25695
3500,-3700,0,5093.1326312987,-94048713.078006
3500,0,0,3500,-2164119.4462495
3500,-700,0,3569.3136595149,-15028128.538667
3500,-4600,0,5780.1384066474,-117537612.85115
3500,-5500,0,6519.2024052026,-141036738.20234
3500,-2700,0,4420.4072210601,-69156948.815184
3500,-8600,0,9284.9340331528,-219293810.80509
3500,-8000,0,8732.1245982865,-204106502.59231
3500,-6700,0,7559.1004755857,-170674506.30326
3500,-5700,0,6688.7966032763,-141392378.68929
3500,-7300,0,8095.6778592036,-188269843.64352
3500,-6400,0,7294.5184899348,-165831217.14568
3500,-7400,0,8185.9635963031,-188269843.64352
3500,-9500,0,10124.228365658,-240939863.68084
3500,-1600,0,3848.3762809788,-40336508.479628
3500,-3900,0,5240.2290026296,-97730745.243992
3500,-6600,0,7470.6090782479,-170674506.30326
3500,-3800,0,5166.2365412358,-97730745.243992
3500,-300,0,3512.8336140501,-10660145.847573
3500,-5900,0,6860.029154457,-151041052.63793
3500,-7000,0,7826.2379212493,-178100842.19082
3500,-2100,0,4081.6663263917,-54708835.394731
3500,-2600,0,4360.0458713183,-65559991.565071
3500,-2000,0,4031.1288741493,-52763191.02173
3500,-9700,0,10312.128781197,-247812615.54405
3500,-1000,0,3640.0549446403,-27622172.387209
3500,-8500,0,9192.3881554251,-219293810.80509
3500,-8400,0,9100,-213328280.30091
3500,-5300,0,6351.3778032802,-134792689.72584
3500,-9000,0,9656.603957914,-231137436.75958
3500,-7900,0,8640.6018308912,-204106502.59231
3500,-1500,0,3807.886552932,-40336508.479628
3500,-3100,0,4675.4678910244,-80286353.234073
3600,-9000,0,9693.2966528421,-228268726.71097
3600,-5300,0,6407.0273918565,-136686442.72995
3600,-7900,0,8681.5897161753,-204106502.59231
3600,-1500,0,3900,-40336508.479628
3600,-2600,0,4440.7206622349,-63748501.314415
3600,-1000,0,3736.3083384539,-27622172.387209
3600,-3100,0,4750.7894080879,-82154047.306044
3600,-8400,0,9138.9277270367,-209883145.19252
3600,-4500,0,5762.8118136896,-115247016.93411
3600,-8500,0,9230.9262807153,-219293810.80509
3600,-2000,0,4118.2520563948,-52763191.02173
3600,-9700,0,10346.496991736,-247812615.54405
3600,-2100,0,4167.7331968349,-52763191.02173
3600,-300,0,3612.4783736377,-8679726.7855317
3600,-5900,0,6911.584478251,-151041052.63793
3600,-6700,0,7605.9187479226,-170674506.30326
3600,-3800,0,5234.500931321,-99548844.11366
3600,-6600,0,7517.978451685,-170674506.30326
3600,-4600,0,5841.2327466041,-115247016.93411
3600,-1600,0,3939.5431207184,-40336508.479628
3600,-700,0,3667.4241641784,-17048283.2131
3600,-7300,0,8139.4102980499,-185780385.60212
3600,-9500,0,10159.232254457,-240939863.68084
3600,-6400,0,7343.0239002743,-163333452.44184
3600,-5700,0,6741.6615162733,-143561314.53552
3600,-7400,0,8229.2162445764,-185780385.60212
3600,-8000,0,8772.6848797845,-204106502.59231
3600,-4200,0,5531.7266743757,-105580787.14832
3600,-7800,0,8590.6926379658,-201075206.59162
3600,-5500,0,6573.4313718179,-141036738.20234
3600,-4400,0,5685.0681614208,-111151410.15323
3600,-3700,0,5162.3637996561,-91918142.664943
3600,-6800,0,7694.1536246685,-173250766.70291
3600,-2700,0,4500,-70967482.288443
3600,-4000,0,5381.4496188295,-103457434.17231
3600,-3400,0,4951.767361256,-85855689.920733
3600,-3600,0,5091.1688245431,-91918142.664943
3600,-1400,0,3862.6415831656,-36110697.548524
3600,0,0,3600,-2164119.4462495
3600,-7000,0,7871.4674616618,-180672657.01126
3600,-1100,0,3764.3060449437,-29628083.2663
3600,-9100,0,9786.214794291,-228268726.71097
3600,-2500,0,4382.9214001622,-63748501.314415
3600,-4300,0,5608.029957124,-111151410.15323
3600,-200,0,3605.551275464,-4399560.5054696
3600,-900,0,3710.7950630559,-21151115.715374
3600,-8900,0,9600.5208192056,-228268726.71097
3600,-500,0,3634.5563690772,-10660145.847573
3600,-3900,0,5307.5418038862,-99548844.11366
3600,-3200,0,4816.6378315169,-82154047.306044
3600,-7500,0,8319.2547743172,-193521577.00546
3600,-9900,0,10534.229919648,-251485177.92203
3600,-5000,0,6161.1687202997,-128177828.191
3600,-1900,0,4070.6264874095,-48903366.065317
3600,-4900,0,6080.2960454241,-123873554.02502
3600,-400,0,3622.154055255,-8679726.7855317
3600,-7200,0,8049.8447189992,-185780385.60212
3600,-5100,0,6242.5956140054,-128177828.191
3600,-8300,0,9047.0989825468,-209883145.19252
3600,-4100,0,5456.1891462815,-103457434.17231
3600,-100,0,3601.3886210738,-2164119.4462495
3600,-3000,0,4686.149805544,-74619075.320211
3600,-6200,0,7169.379331574,-158446731.01003
3600,-6000,0,6997.1422738144,-151041052.63793
3600,-3500,0,5020.9560842533,-88254910.380302
3600,-4800,0,6000,-123873554.02502
3600,-1200,0,3794.7331922021,-29628083.2663
3600,-2800,0,4560.7017003966,-70967482.288443
3600,-5800,0,6826.4192663504,-148453276.90098
3600,-2200,0,4219.0046219458,-54605262.132822
3600,-9300,0,9972.4620831568,-240939863.68084
3600,-3300,0,4883.6461788299,-85855689.920733
3600,-2400,0,4326.6615305568,-60128462.184964
3600,-8100,0,8863.9720216165,-204106502.59231
3600,-6100,0,7083.0784267859,-156232114.37564
3600,-8600,0,9323.0896166453,-222174354.75037
3600,-600,0,3649.6575181789,-17048283.2131
3600,-6300,0,7256.0319734687,-158446731.01003
3600,-8800,0,9507.8914592038,-222174354.75037
3600,-7700,0,8500,-195952213.06891
3600,-9200,0,9879.2712281828,-237327817.42283
3600,-800,0,3687.8177829172,-21151115.715374
3600,-6500,0,7430.343195304,-165831217.14568
3600,-10000,0,10628.264204469,-251485177.92203
3600,-7600,0,8409.5184166515,-193521577.00546
3600,-7100,0,7960.5276207045,-180672657.01126
3600,-8700,0,9415.4128958851,-222174354.75037
3600,-5400,0,6489.9922958352,-136686442.72995
3600,-1700,0,3981.2058474789,-42636594.625611
3600,-9800,0,10440.306508911,-247812615.54405
3600,-1800,0,4024.9223594996,-46875431.021723
3600,-1300,0,3827.5318418009,-33918657.257746
3600,-4700,0,5920.3040462463,-121931202.76024
3600,-5200,0,6324.5553203368,-134792689.72584
3600,-2300,0,4272.0018726588,-60128462.184964
3600,-9600,0,10252.804494381,-247812615.54405
3600,-8200,0,8955.4452708952,-209883145.19252
3600,-6900,0,7782.6730626437,-178332363.31229
3600,-9400,0,10065.783625729,-240939863.68084
3600,-2900,0,4622.7697325305,-74619075.320211
3600,-5600,0,6657.3267908373,-141036738.20234
3700,-6300,0,7306.1617830431,-158446731.01003
3700,-4400,0,5748.9129407219,-111151410.15323
3700,-3100,0,4827.0073544589,-80102921.937719
3700,-2300,0,4356.6041821584,-58311947.837081
3700,-7700,0,8542.8332536694,-195952213.06891
3700,-100,0,3701.3511046643,-4399560.5054696
3700,-1000,0,3832.7535793474,-27215199.632108
3700,-6900,0,7829.4316524254,-178332363.31229
3700,0,0,3700,-2164119.4462495
3700,-2200,0,4304.6486500062,-54605262.132822
3700,-9100,0,9823.4413521942,-231281005.11408
3700,-7600,0,8452.8101836017,-195952213.06891
3700,-7800,0,8633.0759292387,-201075206.59162
3700,-5300,0,6463.7450444769,-134563231.60262
3700,-9900,0,10568.822072492,-251485177.92203
3700,-200,0,3705.4014627298,-4399560.5054696
3700,-9000,0,9730.8786859153,-228268726.71097
3700,-2400,0,4410.21541424,-58311947.837081
3700,-4600,0,5903.3888572582,-117316041.22018
3700,-4200,0,5597.3207876626,-105116693.02659
3700,-5000,0,6220.1286160336,-128177828.191
3700,-1100,0,3860.0518131238,-29628083.2663
3700,-5800,0,6879.6802251267,-148453276.90098
3700,-6800,0,7741.4468931848,-173250766.70291
3700,-3200,0,4891.829923454,-80102921.937719
3700,-3600,0,5162.3637996561,-93309746.160509
3700,-6400,0,7392.5638313105,-163333452.44184
3700,-3000,0,4763.4021455258,-76484594.74869
3700,-7000,0,7917.701686727,-178332363.31229
3700,-900,0,3807.886552932,-23050951.696038
3700,-5700,0,6795.5868032128,-143561314.53552
3700,-6100,0,7134.4235926948,-158446731.01003
3700,-3900,0,5375.8720222862,-97252895.186702
3700,-2100,0,4254.4094772365,-54605262.132822
3700,-7900,0,8723.5313950258,-201075206.59162
3700,-9200,0,9916.1484458433,-237739203.21288
3700,-8900,0,9638.4646080172,-228268726.71097
3700,-3700,0,5232.5901807805,-93309746.160509
3700,-1200,0,3889.7300677553,-29628083.2663
3700,-4100,0,5522.6805085936,-105116693.02659
3700,-800,0,3785.4986461495,-21151115.715374
3700,-2000,0,4205.9481689626,-52763191.02173
3700,-8000,0,8814.1930997681,-204106502.59231
3700,-4700,0,5981.6385714953,-121567073.0201
3700,-4900,0,6140.0325732035,-123873554.02502
3700,-8700,0,9454.0996398388,-222174354.75037
3700,-7500,0,8363.013810822,-193620366.4609
3700,-1300,0,3921.7343102255,-33918657.257746
3700,-6000,0,7049.1134194308,-150982346.25698
3700,-9800,0,10475.208828467,-251485177.92203
3700,-300,0,3712.1422386541,-8679726.7855317
3700,-5400,0,6545.9911396213,-136686442.72995
3700,-2500,0,4465.4227123532,-65523342.384532
3700,-5200,0,6382.0059542435,-134563231.60262
3700,-9300,0,10008.995953641,-237739203.21288
3700,-4300,0,5672.7418414731,-109088906.30056
3700,-2900,0,4701.0637094173,-76484594.74869
3700,-6200,0,7220.1108024739,-158446731.01003
3700,-7100,0,8006.2475604992,-178332363.31229
3700,-9700,0,10381.714694596,-247812615.54405
3700,-4500,0,5825.8046654518,-115247016.93411
3700,-1900,0,4159.3268686171,-46875431.021723
3700,-3800,0,5303.7722424704,-97252895.186702
3700,-400,0,3721.5588131857,-8679726.7855317
3700,-8600,0,9362.1578709184,-222174354.75037
3700,-7400,0,8273.4515167492,-188682750.07068
3700,-700,0,3765.6340767525,-17048283.2131
3700,-2600,0,4522.167621838,-65523342.384532
3700,-1400,0,3956.0080889705,-33918657.257746
3700,-5600,0,6711.9296778199,-143561314.53552
3700,-10000,0,10662.551289443,-251485177.92203
3700,-8100,0,8905.0547443573,-209883145.19252
3700,-6700,0,7653.757247261,-173250766.70291
3700,-3300,0,4957.8221024962,-85855689.920733
3700,-8500,0,9270.3829478614,-218918820.20512
3700,-8800,0,9546.2034338265,-222174354.75037
3700,-2800,0,4640.0431032481,-69140083.014642
3700,-3500,0,5093.1326312987,-87335476.919469
3700,-6500,0,7479.3047805261,-163333452.44184
3700,-9400,0,10101.98000394,-240939863.68084
3700,-1800,0,4114.6081222882,-46875431.021723
3700,-8200,0,8996.1102705558,-209883145.19252
3700,-1500,0,3992.4929555354,-40332112.328477
3700,-7200,0,8095.0602221355,-185780385.60212
3700,-9600,0,10288.34291808,-247812615.54405
3700,-500,0,3733.6309405189,-11132334.038974
3700,-8400,0,9178.7798753429,-212598645.62367
3700,-5100,0,6300.7936008093,-130206122.7313
3700,-600,0,3748.3329627983,-15177370.000222
3700,-5900,0,6964.1941385921,-148453276.90098
3700,-9500,0,10195.096860746,-240939863.68084
3700,-1600,0,4031.1288741493,-42636594.625611
3700,-1700,0,4071.8546143005,-42636594.625611
3700,-8300,0,9087.3538502691,-209883145.19252
3700,-5500,0,6628.7253676706,-143561314.53552
3700,-4000,0,5448.8530903301,-103457434.17231
3700,-7300,0,8184.130986244,-185780385.60212
3700,-6600,0,7566.3729752108,-173250766.70291
3700,-4800,0,6060.5280298007,-121567073.0201
3700,-2700,0,4580.3929962395,-69140083.014642
3700,-3400,0,5024.9378105604,-85855689.920733
3800,-6300,0,7357.3092907666,-158446731.01003
3800,-3400,0,5099.0195135928,-87335476.919469
3800,-2700,0,4661.5448083227,-69140083.014642
3800,-4800,0,6122.0911460056,-121567073.0201
3800,-6600,0,7615.7731058639,-170858958.3542
3800,-4400,0,5813.7767414995,-110946824.95222
3800,-5500,0,6685.0579653433,-141429534.01754
3800,-4000,0,5517.2456896535,-102954549.05071
3800,-7300,0,8229.823813424,-188682750.07068
3800,-8300,0,9128.5267157412,-212598645.62367
3800,-1600,0,4123.1056256177,-40332112.328477
3800,-1700,0,4162.9316592997,-42636594.625611
3800,-9500,0,10231.813133556,-237739203.21288
3800,-5900,0,7017.8344238091,-150982346.25698
3800,-5100,0,6360.0314464631,-130206122.7313
3800,-600,0,3847.0768123343,-15177370.000222
3800,-500,0,3832.7535793474,-11132334.038974
3800,-8400,0,9219.5444572929,-212598645.62367
3800,-1500,0,4085.3396431631,-40332112.328477
3800,-7200,0,8141.252974819,-181376985.36656
3800,-9600,0,10324.727599312,-251485177.92203
3800,-8200,0,9037.698822156,-212598645.62367
3800,-9400,0,10139.033484509,-237739203.21288
3800,-6500,0,7529.2761936324,-165766644.61426
3800,-3500,0,5166.2365412358,-91120601.828034
3800,-2800,0,4720.1694884824,-70996121.606486
3800,-6200,0,7271.8635850791,-155815261.88196
3800,-3300,0,5032.8918128646,-85343111.876671
3800,-1800,0,4204.7592083257,-46875431.021723
3800,-8100,0,8947.0665583754,-209883145.19252
3800,-6700,0,7702.5969646607,-170858958.3542
3800,-8500,0,9310.7464792035,-218918820.20512
3800,-1400,0,4049.6913462633,-35850233.877067
3800,-2600,0,4604.3457732885,-65523342.384532
3800,-5600,0,6767.5697262755,-143561314.53552
3800,-700,0,3863.9358172723,-17010529.507087
3800,-400,0,3820.9946349086,-11132334.038974
3800,-7400,0,8318.6537372342,-188682750.07068
3800,-3800,0,5374.0115370178,-97252895.186702
3800,-8600,0,9402.1274188345,-218918820.20512
3800,-1900,0,4248.5291572496,-48842925.381692
3800,-4500,0,5889.8217290509,-115079943.36167
3800,-7100,0,8052.9497701153,-181376985.36656
3800,-9700,0,10417.773274553,-251485177.92203
3800,-4300,0,5738.4666941614,-109088906.30056
3800,-2900,0,4780.1673610868,-74682063.445266
3800,-5400,0,6603.0296076877,-136777641.30224
3800,-9300,0,10046.39238732,-237739203.21288
3800,-10000,0,10697.663296253,-251485177.92203
3800,-2500,0,4548.6261662177,-63780542.893367
3800,-5200,0,6440.4968752418,-134563231.60262
3800,-300,0,3811.8237105092,-8679726.7855317
3800,-9800,0,10510.946674777,-251485177.92203
3800,-6000,0,7102.1123618259,-150982346.25698
3800,-1300,0,4016.2171256046,-35850233.877067
3800,-8000,0,8856.6359301938,-201075206.59162
3800,-7500,0,8407.734534344,-188682750.07068
3800,-4700,0,6044.0052945046,-121567073.0201
3800,-4900,0,6200.806399171,-123600678.4001
3800,-2000,0,4294.1821107168,-52707177.379114
3800,-800,0,3883.2975677895,-20797332.864245
3800,-8700,0,9493.682109698,-218918820.20512
3800,-1200,0,3984.9717690343,-27215199.632108
3800,-3700,0,5303.7722424704,-93309746.160509
3800,-8800,0,9585.4055730574,-222174354.75037
3800,-7000,0,7964.923100696,-178332363.31229
3800,-4100,0,5590.1699437495,-105116693.02659
3800,-9200,0,9953.8937105034,-237739203.21288
3800,-7900,0,8766.4131775772,-201075206.59162
3800,-8900,0,9677.2930099279,-228268726.71097
3800,-1100,0,3956.0080889705,-27215199.632108
3800,-3900,0,5445.1813560248,-99000017.012013
3800,-2100,0,4341.6586692185,-52707177.379114
3800,-6100,0,7186.7934435324,-155815261.88196
3800,-5000,0,6280.127387243,-127951006.20357
3800,-5700,0,6850.5474233816,-143561314.53552
3800,-7800,0,8676.4047853935,-201075206.59162
3800,-6400,0,7443.1176263714,-163333452.44184
3800,-3000,0,4841.4873747641,-74682063.445266
3800,-3200,0,4967.8969393497,-81806436.037292
3800,-3600,0,5234.500931321,-91120601.828034
3800,-5800,0,6933.9743293439,-148453276.90098
3800,-6800,0,7789.7368376602,-173250766.70291
3800,-4200,0,5663.9209034025,-109088906.30056
3800,-2400,0,4494.4410108488,-60193704.221662
3800,-4600,0,5966.5735560705,-117316041.22018
3800,-900,0,3905.1248379533,-23050951.696038
3800,-200,0,3805.2595180881,-4399560.5054696
3800,-5300,0,6521.5028942721,-134563231.60262
3800,-9900,0,10604.244433245,-251485177.92203
3800,-9000,0,9769.3397934559,-231281005.11408
3800,-6900,0,7877.1822373232,-178332363.31229
3800,-9100,0,9861.541461658,-231281005.11408
3800,-7600,0,8497.0583144992,-193620366.4609
3800,-2200,0,4390.89968002,-54605262.132822
3800,-7700,0,8586.6174946832,-193620366.4609
3800,0,0,3800,-2396042.0218565
3800,-100,0,3801.3155617496,-2396042.0218565
3800,-1000,0,3929.3765408777,-27215199.632108
3800,-2300,0,4441.8464629026,-60193704.221662
3800,-3100,0,4904.0799340957,-80102921.937719
3900,-7000,0,8013.1142510263,-181376985.36656
3900,-9000,0,9808.6696345631,-231281005.11408
3900,-3500,0,5240.2290026296,-91120601.828034
3900,-400,0,3920.4591567825,-10655590.394773
3900,-3100,0,4981.9674828325,-80073899.282941
3900,-7400,0,8364.8072302953,-186635329.79489
3900,-1000,0,4026.1644278395,-27215199.632108
3900,-2600,0,4687.2166581032,-65686680.109792
3900,-2300,0,4527.6925690687,-58444771.01428
3900,-9100,0,9900.5050376231,-231281005.11408
3900,-6900,0,7925.9068881737,-173570140.8512
3900,-5600,0,6824.2215673291,-141429534.01754
3900,-6300,0,7409.4534211371,-158090810.59298
3900,-9600,0,10361.949623502,-248123617.82811
3900,-8100,0,8989.994438263,-209741249.14879
3900,-1900,0,4338.2023926968,-48842925.381692
3900,-5300,0,6580.2735505448,-136777641.30224
3900,-1800,0,4295.3463189829,-46694781.372596
3900,-100,0,3901.2818406262,-2396042.0218565
3900,-900,0,4002.4992192379,-20797332.864245
3900,-7700,0,8631.338250816,-196656144.68762
3900,0,0,3900,-2396042.0218565
3900,-6200,0,7324.616030892,-155815261.88196
3900,-4600,0,6030.7545133258,-115079943.36167
3900,-6500,0,7580.2374632989,-165766644.61426
3900,-8200,0,9080.1982357215,-212598645.62367
3900,-9700,0,10454.664030948,-248123617.82811
3900,-7300,0,8276.4726786234,-186635329.79489
3900,-8900,0,9716.9954203962,-231281005.11408
3900,-6800,0,7839.0050389064,-170858958.3542
3900,-2200,0,4477.7226354476,-54672378.584024
3900,-5100,0,6420.2803677098,-127951006.20357
3900,-3000,0,4920.365840057,-76570369.900715
3900,-3200,0,5044.7993022518,-81806436.037292
3900,-5900,0,7072.4818840348,-150982346.25698
3900,-4300,0,5805.17010948,-110946824.95222
3900,-1700,0,4254.4094772365,-42427724.205183
3900,-6100,0,7240.1657439592,-155815261.88196
3900,-500,0,3931.9206502675,-10655590.394773
3900,-3900,0,5515.4328932551,-99000017.012013
3900,-8000,0,8900,-201450398.83778
3900,-8300,0,9170.6052144883,-212598645.62367
3900,-7600,0,8542.2479477009,-193620366.4609
3900,-1100,0,4052.159917871,-29237361.108275
3900,-4800,0,6184.6584384265,-123600678.4001
3900,-2700,0,4743.4164902526,-69284382.56442
3900,-9900,0,10640.488710581,-251485177.92203
3900,-9200,0,9992.4971853886,-237739203.21288
3900,-200,0,3905.1248379533,-2396042.0218565
3900,-2500,0,4632.4939287602,-63780542.893367
3900,-3400,0,5173.9733281106,-85343111.876671
3900,-6600,0,7666.1594035084,-170858958.3542
3900,-4400,0,5879.6258384356,-110946824.95222
3900,-2400,0,4579.3012567421,-60193704.221662
3900,-8800,0,9625.4870006665,-221851330.52746
3900,-300,0,3911.5214431216,-10655590.394773
3900,-4200,0,5731.4919523628,-108743146.68876
3900,-9800,0,10547.511554864,-251485177.92203
3900,-1200,0,4080.4411526206,-29237361.108275
3900,-5500,0,6742.403132415,-141429534.01754
3900,-4000,0,5586.5910893854,-102954549.05071
3900,-3600,0,5307.5418038862,-92840450.280969
3900,-7500,0,8453.4016821632,-188682750.07068
3900,-8700,0,9534.1491492424,-218918820.20512
3900,-800,0,3981.2058474789,-20797332.864245
3900,-4700,0,6107.372593841,-123600678.4001
3900,-4900,0,6262.5873247405,-123600678.4001
3900,-5800,0,6989.2775020026,-150982346.25698
3900,-1300,0,4110.9609582189,-33583556.957295
3900,-10000,0,10733.592129385,-251485177.92203
3900,-1600,0,4215.4477816716,-40332112.328477
3900,-6000,0,7156.1162651259,-150982346.25698
3900,-9500,0,10269.371937952,-241239049.70808
3900,-600,0,3945.8839313898,-17010529.507087
3900,-8400,0,9261.2094242599,-212598645.62367
3900,-6400,0,7494.6647690207,-165766644.61426
3900,-7800,0,8720.6651122492,-201450398.83778
3900,-5200,0,6500,-134563231.60262
3900,-9300,0,10084.641788383,-237739203.21288
3900,-5400,0,6661.0809933524,-136777641.30224
3900,-2000,0,4382.9214001622,-52707177.379114
3900,-1500,0,4178.5164831552,-40332112.328477
3900,-3700,0,5375.8720222862,-92840450.280969
3900,-7200,0,8188.4064383737,-181376985.36656
3900,-5700,0,6906.5186599328,-143802441.89925
3900,-4100,0,5658.621740318,-102954549.05071
3900,-2900,0,4860.0411520891,-74682063.445266
3900,-9400,0,10176.934705499,-237739203.21288
3900,-2800,0,4801.0415536631,-70996121.606486
3900,-4500,0,5954.8299723838,-115079943.36167
3900,-3300,0,5108.8159097779,-85343111.876671
3900,-6700,0,7752.4189773257,-170858958.3542
3900,-7100,0,8100.6172604315,-181376985.36656
3900,-8500,0,9352.0051325905,-218918820.20512
3900,-2100,0,4429.44691807,-52707177.379114
3900,-5000,0,6341.1355449951,-127951006.20357
3900,-1400,0,4143.6698710201,-35850233.877067
3900,-7900,0,8810.2213366067,-201450398.83778
3900,-700,0,3962.3225512318,-17010529.507087
3900,-8600,0,9442.9868156214,-218918820.20512
3900,-3800,0,5445.1813560248,-99000017.012013
4000,-8600,0,9484.7245611035,-218918820.20512
4000,-5000,0,6403.1242374328,-127951006.20357
4000,-6700,0,7803.2044699598,-173570140.8512
4000,-3800,0,5517.2456896535,-96772587.06446
4000,-1400,0,4237.9240200834,-33583556.957295
4000,-7900,0,8854.9421229052,-201450398.83778
4000,-10000,0,10770.329614269,-251485177.92203
4000,-8500,0,9394.147114028,-218918820.20512
4000,-7100,0,8149.2330927517,-179018328.11558
4000,-700,0,4060.7881008494,-17010529.507087
4000,-2100,0,4517.7427992306,-54672378.584024
4000,-2000,0,4472.1359549996,-52717205.535544
4000,-2800,0,4882.6222462935,-69284382.56442
4000,-6400,0,7547.1849056453,-163173456.05091
4000,-3300,0,5185.5568649857,-85343111.876671
4000,-4100,0,5728.0013966479,-104722963.10728
4000,-9300,0,10123.734488814,-237739203.21288
4000,-9400,0,10215.674231298,-241239049.70808
4000,-2900,0,4940.6477308143,-74739028.938997
4000,-4500,0,6020.7972893961,-117035875.76485
4000,-7200,0,8236.5041127896,-181376985.36656
4000,-4900,0,6325.3458403474,-123600678.4001
4000,-5700,0,6963.4761434215,-143802441.89925
4000,-7800,0,8765.8428003244,-196656144.68762
4000,-1500,0,4272.0018726588,-40053630.032604
4000,-5400,0,6720.1190465646,-136777641.30224
4000,-3700,0,5448.8530903301,-92840450.280969
4000,-8400,0,9303.7626796904,-212598645.62367
4000,-1300,0,4205.9481689626,-33583556.957295
4000,-600,0,4044.7496832313,-14501151.004318
4000,-5200,0,6560.4877867427,-134587578.77042
4000,-4200,0,5800,-108743146.68876
4000,-9500,0,10307.764064044,-241239049.70808
4000,-6000,0,7211.102550928,-150982346.25698
4000,-1600,0,4308.1318457076,-42427724.205183
4000,-5800,0,7045.5659815234,-148487804.61245
4000,-4700,0,6171.7096496838,-121314186.06335
4000,-7500,0,8500,-189818018.60323
4000,-8700,0,9575.4895436213,-221851330.52746
4000,-3600,0,5381.4496188295,-92840450.280969
4000,-4000,0,5656.8542494924,-104722963.10728
4000,-9800,0,10584.894897919,-248123617.82811
4000,-6600,0,7717.5125526299,-165766644.61426
4000,-1200,0,4176.1226035642,-29237361.108275
4000,-5500,0,6800.7352543677,-141429534.01754
4000,-800,0,4079.2156108742,-20797332.864245
4000,-2400,0,4664.7615158762,-61078801.930294
4000,-4400,0,5946.4274989274,-110946824.95222
4000,-7000,0,8062.2577482985,-179018328.11558
4000,-200,0,4004.9968789002,-3981922.1044243
4000,-9200,0,10031.948963188,-237739203.21288
4000,-300,0,4011.2342240263,-7777994.5754265
4000,-8800,0,9666.4367788757,-221851330.52746
4000,-2700,0,4825.9714048055,-69284382.56442
4000,-9900,0,10677.546534668,-248123617.82811
4000,-3400,0,5249.7618993627,-86836128.123227
4000,-2500,0,4716.9905660283,-64727456.500841
4000,-8300,0,9213.57693841,-209741249.14879
4000,-1100,0,4148.4937025383,-29237361.108275
4000,-4800,0,6248.1997407253,-121314186.06335
4000,-7600,0,8588.3642214336,-194907581.058
4000,-3900,0,5586.5910893854,-96772587.06446
4000,-500,0,4031.1288741493,-14501151.004318
4000,-6100,0,7294.5184899348,-158090810.59298
4000,-8000,0,8944.2719099992,-204531907.22796
4000,-100,0,4001.2498047485,-3981922.1044243
4000,-1700,0,4346.2627624201,-42427724.205183
4000,-9700,0,10492.378186093,-248123617.82811
4000,0,0,4000,-2396042.0218565
4000,-5900,0,7128.1133548787,-148487804.61245
4000,-3200,0,5122.4993899463,-80073899.282941
4000,-5100,0,6481.5121692395,-130106144.23923
4000,-3000,0,5000,-76570369.900715
4000,-8900,0,9757.5611707024,-228116238.82255
4000,-7300,0,8324.0615086627,-186635329.79489
4000,-4300,0,5872.8187440104,-108743146.68876
4000,-2200,0,4565.0848842053,-54672378.584024
4000,-8200,0,9123.5957823656,-209741249.14879
4000,-6800,0,7889.2331693264,-173570140.8512
4000,-1900,0,4428.3179650969,-46694781.372596
4000,-6500,0,7632.1687612369,-163173456.05091
4000,-7700,0,8676.981041814,-196656144.68762
4000,-4600,0,6095.9002616513,-117035875.76485
4000,-5300,0,6640.0301204136,-134587578.77042
4000,-1800,0,4386.3424398923,-46694781.372596
4000,-900,0,4100,-22656896.28836
4000,-3500,0,5315.0729063673,-90546632.572608
4000,-8100,0,9033.8253248555,-204531907.22796
4000,-6300,0,7462.5732827223,-163173456.05091
4000,-6200,0,7378.3466982787,-158090810.59298
4000,-5600,0,6881.8602136341,-143802441.89925
4000,-9100,0,9940.3219263764,-231281005.11408
4000,-9600,0,10400,-248123617.82811
4000,-6900,0,7975.5877526362,-173570140.8512
4000,-2600,0,4770.7441767506,-65686680.109792
4000,-9000,0,9848.8578017961,-228116238.82255
4000,-7400,0,8411.8963379252,-189818018.60323
4000,-1000,0,4123.1056256177,-26938458.211084
4000,-400,0,4019.9502484484,-10655590.394773
4000,-3100,0,5060.632371552,-80073899.282941
4000,-2300,0,4614.1087980237,-58444771.01428
4100,-400,0,4119.4659848092,-10655590.394773
4100,-9600,0,10438.869670611,-248123617.82811
4100,-7400,0,8459.9054368237,-189818018.60323
4100,-2600,0,4854.8944375753,-64727456.500841
4100,-6200,0,7433.0343736593,-158090810.59298
4100,-5600,0,6940.4610797843,-143802441.89925
4100,-8100,0,9078.5461391128,-204531907.22796
4100,-3500,0,5390.7327887774,-90546632.572608
4100,-1800,0,4477.7226354476,-48609821.412727
4100,-6500,0,7685.0504227363,-165602881.8704
4100,-1900,0,4518.849411078,-48609821.412727
4100,-4300,0,5941.3803110052,-110617006.74605
4100,-8200,0,9167.8787077491,-209741249.14879
4100,-7300,0,8372.5742755738,-187433947.74215
4100,-5900,0,7184.7059786744,-150690396.34084
4100,-1700,0,4438.4682042344,-40053630.032604
4100,-9700,0,10530.906893521,-248123617.82811
4100,-300,0,4110.9609582189,-7777994.5754265
4100,-8000,0,8989.4382471876,-204531907.22796
4100,-5100,0,6543.6992595932,-130106144.23923
4100,-4800,0,6312.6856408347,-121314186.06335
4100,-2500,0,4802.0828814172,-64727456.500841
4100,-3400,0,5326.3495942343,-86836128.123227
4100,-2700,0,4909.1750834534,-71144480.044929
4100,-8300,0,9257.4294488265,-209741249.14879
4100,-4400,0,6014.149981502,-110617006.74605
4100,-5500,0,6860.029154457,-141425385.87791
4100,-4000,0,5728.0013966479,-102463729.56601
4100,-9800,0,10623.08806327,-248123617.82811
4100,-6600,0,7769.8133825723,-170920255.94
4100,-500,0,4130.3752856127,-14501151.004318
4100,-7500,0,8547.5142585432,-189818018.60323
4100,-9500,0,10346.980235798,-241239049.70808
4100,-1600,0,4401.1362169331,-40053630.032604
4100,-3700,0,5522.6805085936,-92840450.280969
4100,-8400,0,9347.1920917461,-213178788.92039
4100,-1500,0,4365.7759905886,-40053630.032604
4100,-600,0,4143.6698710201,-14501151.004318
4100,-7200,0,8285.5295545909,-181885514.22626
4100,-9400,0,10255.242561734,-241239049.70808
4100,-3300,0,5263.0789467763,-84790670.089437
4100,-4100,0,5798.2756057297,-104722963.10728
4100,-2800,0,4964.8766349226,-71144480.044929
4100,-2000,0,4561.7978911828,-52717205.535544
4100,-8500,0,9437.1605899232,-221851330.52746
4100,-7900,0,8900.5617800227,-204531907.22796
4100,-1400,0,4332.4358044869,-35690203.993125
4100,-6700,0,7854.9347546622,-170920255.94
4100,-4900,0,6389.0531379853,-123340457.14871
4100,-5000,0,6466.0652641309,-127791226.09022
4100,-10000,0,10807.867504739,-251606238.51554
4100,-8600,0,9527.3291115611,-221851330.52746
4100,-3800,0,5590.1699437495,-98470356.683971
4100,-7100,0,8198.7803971079,-179018328.11558
4100,-700,0,4159.3268686171,-15986992.720177
4100,-2100,0,4606.5171225124,-52717205.535544
4100,-6400,0,7600.6578662639,-163173456.05091
4100,-9300,0,10163.660757818,-241239049.70808
4100,-2900,0,5021.9518117959,-74739028.938997
4100,-4500,0,6087.6925020898,-114778246.07351
4100,-5700,0,7021.3958726168,-143802441.89925
4100,-7800,0,8811.9237400241,-194907581.058
4100,-5400,0,6780.1179930736,-136850728.63433
4100,-1300,0,4301.1626335213,-35690203.993125
4100,0,0,4100,-1739996.3325012
4100,-4200,0,5869.4122363317,-108743146.68876
4100,-5200,0,6621.9332524573,-134587578.77042
4100,-5800,0,7102.8163428319,-148487804.61245
4100,-6000,0,7267.0489196097,-150690396.34084
4100,-4700,0,6236.9864518051,-121314186.06335
4100,-8700,0,9617.6920308357,-221851330.52746
4100,-1200,0,4272.0018726588,-28963238.406835
4100,-800,0,4177.3197148411,-22656896.28836
4100,-3600,0,5456.1891462815,-90546632.572608
4100,-200,0,4104.8751503548,-3981922.1044243
4100,-2400,0,4750.7894080879,-61078801.930294
4100,-9200,0,10072.239075796,-241239049.70808
4100,-7000,0,8112.3362849428,-179018328.11558
4100,-1000,0,4220.1895692018,-26938458.211084
4100,-8800,0,9708.2439194738,-221851330.52746
4100,-9100,0,9980.9819156233,-228116238.82255
4100,-1100,0,4244.9970553582,-26938458.211084
4100,-9900,0,10715.409464878,-251606238.51554
4100,-6100,0,7349.8299300052,-155481889.99769
4100,-3900,0,5658.621740318,-98470356.683971
4100,-7600,0,8635.3922898731,-194907581.058
4100,-100,0,4101.219330882,-3981922.1044243
4100,-3200,0,5200.9614495783,-81555215.945333
4100,-3000,0,5080.3543183522,-74739028.938997
4100,-8900,0,9798.9795387071,-228116238.82255
4100,-2200,0,4652.9560496527,-54672378.584024
4100,-7700,0,8723.5313950258,-194907581.058
4100,-6800,0,7940.4030124421,-173570140.8512
4100,-4600,0,6161.9802012016,-117035875.76485
4100,-5300,0,6700.7462271004,-134587578.77042
4100,-6300,0,7516.6481891865,-163173456.05091
4100,-900,0,4197.6183723631,-22656896.28836
4100,-6900,0,8026.2070743284,-173570140.8512
4100,-9000,0,9889.8938315838,-228116238.82255
4100,-3100,0,5140.0389103586,-81555215.945333
4100,-2300,0,4701.0637094173,-61078801.930294
4200,-1000,0,4317.4066289846,-28963238.406835
4200,-2300,0,4788.5279575252,-59373795.438568
4200,-7200,0,8335.4663936699,-181885514.22626
4200,-6300,0,7571.6576784744,-165602881.8704
4200,-1500,0,4459.8206241956,-40053630.032604
4200,-8500,0,9481.033698917,-218985365.05022
4200,-100,0,4201.19030752,-1739996.3325012
4200,-1400,0,4427.1887242357,-33375135.851762
4200,-8600,0,9570.7888912043,-218985365.05022
4200,-8400,0,9391.4855054991,-213178788.92039
4200,-1900,0,4609.7722286464,-48609821.412727
4200,-9900,0,10754.068997361,-251606238.51554
4200,-7100,0,8249.2423894561,-181885514.22626
4200,-7700,0,8770.9748602992,-198069055.02227
4200,0,0,4200,-1739996.3325012
4200,-2900,0,5103.9200620699,-74739028.938997
4200,-4500,0,6155.485358605,-114778246.07351
4200,-200,0,4204.7592083257,-7535367.7914075
4200,-4000,0,5800,-102463729.56601
4200,-5500,0,6920.2601107184,-141425385.87791
4200,-3600,0,5531.7266743757,-92207058.512445
4200,-5400,0,6841.0525505948,-136850728.63433
4200,-6400,0,7655.0636836019,-165602881.8704
4200,-1600,0,4494.4410108488,-42104356.93783
4200,-1300,0,4396.5895873961,-33375135.851762
4200,-5000,0,6529.9310869258,-127791226.09022
4200,-6000,0,7323.9333694402,-155481889.99769
4200,-8700,0,9660.7453128628,-221851330.52746
4200,-4400,0,6082.7625302982,-110617006.74605
4200,-2200,0,4741.3078364519,-54795719.021714
4200,-1200,0,4368.0659335683,-28963238.406835
4200,-7000,0,8163.3326527834,-181885514.22626
4200,-8800,0,9750.8973945991,-221851330.52746
4200,-8300,0,9302.1502890461,-213178788.92039
4200,-7600,0,8683.317338437,-194907581.058
4200,-2700,0,4992.995093128,-68304773.225864
4200,-1100,0,4341.6586692185,-28963238.406835
4200,-2400,0,4837.3546489791,-61078801.930294
4200,-3900,0,5731.4919523628,-98470356.683971
4200,-3000,0,5161.3951602256,-76582188.905952
4200,-5800,0,7161.0055159873,-150690396.34084
4200,-5900,0,7242.2372234,-150690396.34084
4200,-4200,0,5939.696961967,-108326208.87099
4200,-1700,0,4531.0043036837,-42104356.93783
4200,-8900,0,9841.2397592986,-228116238.82255
4200,-4900,0,6453.681120105,-123340457.14871
4200,-3700,0,5597.3207876626,-92207058.512445
4200,-4600,0,6228.964600959,-114778246.07351
4200,-5300,0,6762.3960250787,-136850728.63433
4200,-8200,0,9213.0342450248,-213178788.92039
4200,-7300,0,8421.9950130596,-187433947.74215
4200,-6900,0,8077.7472107018,-173570140.8512
4200,-9800,0,10662.082348209,-251606238.51554
4200,-300,0,4210.7006542855,-7535367.7914075
4200,-7800,0,8858.89383614,-198069055.02227
4200,-3100,0,5220.1532544553,-79894203.814541
4200,-1800,0,4569.4638635183,-46393068.959095
4200,-9000,0,9931.7672143481,-228116238.82255
4200,-900,0,4295.3463189829,-20365797.516704
4200,-6800,0,7992.4964810752,-170920255.94
4200,-8100,0,9124.1437954473,-202889849.07442
4200,-9700,0,10570.241246064,-248123617.82811
4200,-3200,0,5280.1515129776,-81555215.945333
4200,-6100,0,7406.0785845142,-155481889.99769
4200,-9100,0,10022.474744293,-230757617.22821
4200,-5700,0,7080.2542327236,-141425385.87791
4200,-2600,0,4939.6356140914,-68304773.225864
4200,-3500,0,5467.1747731347,-90546632.572608
4200,-400,0,4219.0046219458,-7535367.7914075
4200,-7400,0,8508.8189544731,-187433947.74215
4200,-5600,0,7000,-141425385.87791
4200,-800,0,4275.5116652864,-20365797.516704
4200,-9200,0,10113.357503816,-237411275.50162
4200,-9600,0,10478.549517944,-241239049.70808
4200,-4700,0,6303.1738037278,-123340457.14871
4200,-10000,0,10846.197490365,-251606238.51554
4200,-2800,0,5047.7717856496,-68304773.225864
4200,-6200,0,7488.6580907396,-155481889.99769
4200,-6500,0,7738.8629655783,-165602881.8704
4200,-4300,0,6010.8235708595,-110617006.74605
4200,-5200,0,6684.3099868274,-134587578.77042
4200,-9300,0,10204.410811017,-237411275.50162
4200,-700,0,4257.9337712088,-15986992.720177
4200,-2100,0,4695.7427527496,-52717205.535544
4200,-5100,0,6606.8146636636,-127791226.09022
4200,-3800,0,5663.9209034025,-96193808.648452
4200,-6700,0,7907.5912893877,-170920255.94
4200,-3300,0,5341.3481444295,-84790670.089437
4200,-8000,0,9035.4855984612,-202889849.07442
4200,-4800,0,6378.0874876408,-123340457.14871
4200,-2500,0,4887.73976394,-61078801.930294
4200,-9400,0,10295.630140987,-241239049.70808
4200,-3400,0,5403.7024344425,-84790670.089437
4200,-6600,0,7823.0428862432,-170920255.94
4200,-500,0,4229.6571965113,-15986992.720177
4200,-7900,0,8947.0665583754,-202889849.07442
4200,-7500,0,8595.9292691366,-189818018.60323
4200,-4100,0,5869.4122363317,-104195428.13076
4200,-2000,0,4651.8813398452,-52717205.535544
4200,-600,0,4242.6406871193,-15986992.720177
4200,-9500,0,10387.011119663,-241239049.70808
4300,-9500,0,10427.847332983,-237411275.50162
4300,-7200,0,8386.298349093,-181885514.22626
4300,-2800,0,5131.276644267,-69372648.2436
4300,-6600,0,7877.1822373232,-170920255.94
4300,-6300,0,7627.58153021,-162814879.93036
4300,-1500,0,4554.1190146943,-39795453.135957
4300,-8500,0,9525.7545632879,-218985365.05022
4300,-600,0,4341.6586692185,-13949511.514652
4300,-1400,0,4522.167621838,-35425962.379692
4300,-2000,0,4742.3622805518,-52720850.583998
4300,-500,0,4328.9721643827,-13949511.514652
4300,-4100,0,5941.3803110052,-104195428.13076
4300,-100,0,4301.1626335213,-3756800.4085526
4300,0,0,4300,-1739996.3325012
4300,-9400,0,10336.827366267,-237411275.50162
4300,-8400,0,9436.6307546709,-213178788.92039
4300,-7500,0,8645.2298986204,-190261487.81564
4300,-7900,0,8994.4427287075,-202889849.07442
4300,-3400,0,5481.7880294663,-85349261.259532
4300,-9900,0,10793.516572461,-251606238.51554
4300,-2500,0,4973.9320461784,-61653279.817079
4300,-8600,0,9615.0923032491,-218985365.05022
4300,-4800,0,6444.3773942872,-121065802.01696
4300,-8000,0,9082.4005637276,-202889849.07442
4300,-7100,0,8300.6023877789,-181885514.22626
4300,-7700,0,8819.2970241397,-198069055.02227
4300,-3300,0,5420.3320931471,-85349261.259532
4300,-2900,0,5186.520991956,-74037371.462336
4300,-3600,0,5608.029957124,-92207058.512445
4300,-9300,0,10245.974819411,-237411275.50162
4300,-4500,0,6224.1465278382,-116777231.23697
4300,-6700,0,7961.1556949981,-170920255.94
4300,-200,0,4304.6486500062,-3756800.4085526
4300,-5100,0,6670.8320320632,-129946451.76245
4300,-3800,0,5738.4666941614,-96193808.648452
4300,-2100,0,4785.3944456022,-54795719.021714
4300,-4000,0,5872.8187440104,-104195428.13076
4300,-700,0,4356.6041821584,-15986992.720177
4300,-5500,0,6981.4038702828,-141425385.87791
4300,-5400,0,6902.8979421689,-136850728.63433
4300,-6400,0,7710.3826104805,-162814879.93036
4300,-1600,0,4588.0278987818,-42104356.93783
4300,-6500,0,7793.5871073595,-165602881.8704
4300,-4300,0,6081.1183182043,-108326208.87099
4300,-1300,0,4492.2154890432,-33375135.851762
4300,-5200,0,6747.5921631349,-134531680.18462
4300,-5000,0,6594.694837519,-127791226.09022
4300,-6000,0,7381.7342135842,-155481889.99769
4300,-8700,0,9704.6380664093,-218985365.05022
4300,-4700,0,6370.2433234532,-121065802.01696
4300,-1900,0,4701.0637094173,-46393068.959095
4300,-6200,0,7545.1971478551,-157759761.87785
4300,-4400,0,6152.2353661088,-110617006.74605
4300,-9200,0,10155.294185793,-237411275.50162
4300,-9600,0,10519.030373566,-241239049.70808
4300,-2200,0,4830.1138702933,-54795719.021714
4300,-3200,0,5360.037313303,-82118274.125198
4300,-1200,0,4464.3028571099,-28963238.406835
4300,-800,0,4373.7855457258,-22240857.725983
4300,-2700,0,5077.4009099144,-69372648.2436
4300,-7000,0,8215.2297594163,-178983378.61368
4300,-6100,0,7463.2432628181,-155481889.99769
4300,-8800,0,9794.3861471764,-221851330.52746
4300,-5600,0,7060.4532432415,-143690978.35919
4300,-1100,0,4438.4682042344,-28963238.406835
4300,-8300,0,9347.7269964414,-211353820.04511
4300,-7400,0,8558.6213843118,-187433947.74215
4300,-400,0,4318.5645763378,-9980613.689012
4300,-7600,0,8732.1245982865,-195805354.1779
4300,-3500,0,5544.3665102516,-89056489.614693
4300,-2600,0,5024.9378105604,-69372648.2436
4300,-10000,0,10885.311203636,-251606238.51554
4300,-9100,0,10064.790112069,-230757617.22821
4300,-5700,0,7140.0280111495,-143690978.35919
4300,-4900,0,6519.2024052026,-123340457.14871
4300,-3900,0,5805.17010948,-97665071.243596
4300,-9700,0,10610.372283761,-251606238.51554
4300,-8100,0,9170.6052144883,-206257100.06782
4300,-2400,0,4924.4289008981,-59373795.438568
4300,-3000,0,5243.0906915673,-76582188.905952
4300,-6800,0,8045.4956342043,-173457050.64031
4300,-5900,0,7300.6848993776,-150690396.34084
4300,-5800,0,7220.1108024739,-148286522.01156
4300,-900,0,4393.1765272978,-22240857.725983
4300,-4200,0,6010.8235708595,-108326208.87099
4300,-1700,0,4623.8512086788,-42104356.93783
4300,-9000,0,9974.4674043279,-230757617.22821
4300,-300,0,4310.4524124505,-7535367.7914075
4300,-8900,0,9884.3310345213,-230757617.22821
4300,-3700,0,5672.7418414731,-96193808.648452
4300,-1800,0,4661.5448083227,-46393068.959095
4300,-4600,0,6296.8245965725,-116777231.23697
4300,-3100,0,5300.9433122794,-79894203.814541
4300,-1000,0,4414.7480109288,-26569102.08672
4300,-5300,0,6824.9542123006,-134531680.18462
4300,-7800,0,8906.7390216622,-198069055.02227
4300,-9800,0,10701.868995647,-251606238.51554
4300,-6900,0,8130.1906496711,-173457050.64031
4300,-8200,0,9259.0496272566,-211353820.04511
4300,-2300,0,4876.4741360946,-59373795.438568
4300,-7300,0,8472.3078319901,-187433947.74215
4400,-7300,0,8523.496934944,-190261487.81564
4400,-9800,0,10742.439201597,-251606238.51554
4400,-6900,0,8183.5200250259,-173457050.64031
4400,-8200,0,9305.9120993055,-211353820.04511
4400,-3700,0,5748.9129407219,-97665071.243596
4400,-1000,0,4512.2056690714,-26569102.08672
4400,-5300,0,6888.3960397178,-134531680.18462
4400,-4600,0,6365.5321851358,-116777231.23697
4400,-7800,0,8955.4452708952,-195805354.1779
4400,-1800,0,4753.9457296019,-48426541.607303
4400,-8900,0,9928.2425433709,-226402479.67333
4400,-3100,0,5382.3786563192,-80286928.624279
4400,-4200,0,6082.7625302982,-108326208.87099
4400,-3000,0,5325.4107822777,-74037371.462336
4400,-1700,0,4716.9905660283,-39795453.135957
4400,-9000,0,10017.983829095,-230757617.22821
4400,-900,0,4491.1023145771,-22240857.725983
4400,-300,0,4410.21541424,-9980613.689012
4400,-6800,0,8099.3826925266,-173457050.64031
4400,-5900,0,7360.0271738629,-148286522.01156
4400,-9700,0,10651.291001564,-247880460.57343
4400,-2400,0,5011.9856344567,-61653279.817079
4400,-8100,0,9217.917335277,-206257100.06782
4400,-3500,0,5622.2771187482,-89056489.614693
4400,-3900,0,5879.6258384356,-97665071.243596
4400,-5700,0,7200.6944109579,-143690978.35919
4400,-2600,0,5110.7729356723,-66270131.516404
4400,-9100,0,10107.917688624,-230757617.22821
4400,-7400,0,8609.2973000124,-190261487.81564
4400,-8300,0,9394.147114028,-211353820.04511
4400,-400,0,4418.1444068749,-9980613.689012
4400,-1100,0,4535.4161881794,-26569102.08672
4400,-8800,0,9838.6991009991,-226402479.67333
4400,-5600,0,7121.7975259059,-143690978.35919
4400,-7600,0,8781.7993600401,-195805354.1779
4400,-4900,0,6585.5903304108,-123124053.22443
4400,-6100,0,7521.3030785895,-157759761.87785
4400,-800,0,4472.1359549996,-22240857.725983
4400,-7000,0,8268.0106434378,-178983378.61368
4400,-5000,0,6660.3303221387,-129946451.76245
4400,-9600,0,10560.303025955,-247880460.57343
4400,-1200,0,4560.7017003966,-28583532.49089
4400,-3200,0,5440.5882034942,-82118274.125198
4400,-6200,0,7602.6311234993,-157759761.87785
4400,-4400,0,6222.5396744416,-110196204.48091
4400,-8700,0,9749.3589532851,-220885475.21252
4400,-4700,0,6438.1674411279,-121065802.01696
4400,-2200,0,4919.3495504995,-54795719.021714
4400,-6000,0,7440.4300950953,-155118190.44974
4400,-9200,0,10198.039027186,-237411275.50162
4400,-5200,0,6811.7545463706,-134531680.18462
4400,-6400,0,7766.595135579,-162814879.93036
4400,-4300,0,6152.2353661088,-110196204.48091
4400,-1600,0,4681.8799642879,-39795453.135957
4400,-6500,0,7849.2037812762,-162814879.93036
4400,-3800,0,5813.7767414995,-97665071.243596
4400,-1300,0,4588.0278987818,-35425962.379692
4400,-2900,0,5269.7248505022,-74037371.462336
4400,-10000,0,10925.200226998,-251606238.51554
4400,-2100,0,4875.4486972996,-52720850.583998
4400,-5400,0,6965.6299069072,-136682663.82849
4400,-5500,0,7043.4366611761,-141274563.60018
4400,-700,0,4455.3338819891,-15867766.165488
4400,-200,0,4404.543109109,-3756800.4085526
4400,-4500,0,6293.6475910238,-114484915.62224
4400,-4000,0,5946.4274989274,-101670183.24746
4400,-1900,0,4792.7027865287,-48426541.607303
4400,-6700,0,8015.6097709407,-173457050.64031
4400,-2700,0,5162.3637996561,-69372648.2436
4400,-5100,0,6735.7256476196,-129946451.76245
4400,-9300,0,10288.34291808,-237411275.50162
4400,-4800,0,6511.5282384399,-121065802.01696
4400,-7700,0,8868.4835231284,-195805354.1779
4400,-3300,0,5500,-82118274.125198
4400,-3600,0,5685.0681614208,-89056489.614693
4400,-8000,0,9130.1697684107,-206257100.06782
4400,-8600,0,9660.2277405867,-220885475.21252
4400,-2500,0,5060.632371552,-61653279.817079
4400,-3400,0,5560.5755097831,-89056489.614693
4400,-9900,0,10833.743581976,-251606238.51554
4400,-7500,0,8695.4010833313,-190261487.81564
4400,-8400,0,9482.6156729038,-211353820.04511
4400,-100,0,4401.1362169331,-2143212.9359696
4400,-7100,0,8352.8438271046,-178983378.61368
4400,-600,0,4440.7206622349,-13949511.514652
4400,-7900,0,9042.6765949026,-202889849.07442
4400,-2000,0,4833.2183894378,-52720850.583998
4400,-1400,0,4617.3585522461,-35425962.379692
4400,-8500,0,9571.3112999212,-220885475.21252
4400,-500,0,4428.3179650969,-13949511.514652
4400,-6300,0,7684.3997813753,-162814879.93036
4400,-2800,0,5215.3619241621,-69372648.2436
4400,-1500,0,4648.6557196678,-39795453.135957
4400,-9400,0,10378.824596263,-237411275.50162
4400,-6600,0,7932.2128060208,-173457050.64031
4400,-4100,0,6014.149981502,-104195428.13076
4400,-7200,0,8438.0092438916,-178983378.61368
4400,-9500,0,10469.479452198,-240572553.64048
4400,-2300,0,4964.8766349226,-61653279.817079
4400,0,0,4400,-2143212.9359696
4400,-5800,0,7280.1098892805,-148286522.01156
4500,-7200,0,8490.5830188509,-181597454.40575
4500,-1500,0,4743.4164902526,-39795453.135957
4500,-2800,0,5300,-74037371.462336
4500,-2300,0,5053.7115073973,-59189995.583666
4500,-6300,0,7742.0927403384,-162814879.93036
4500,-10000,0,10965.856099731,-251606238.51554
4500,-100,0,4501.1109739708,-2143212.9359696
4500,-8500,0,9617.6920308357,-215947165.50785
4500,-9900,0,10874.741376235,-247880460.57343
4500,-3600,0,5762.8118136896,-90307168.367466
4500,-7700,0,8918.5200566013,-195805354.1779
4500,-200,0,4504.4422518221,-4974720.5314167
4500,-6400,0,7823.6819976275,-165175701.09283
4500,-2200,0,5008.9919145473,-54831118.535007
4500,-5000,0,6726.8120235369,-127560148.92511
4500,-4900,0,6652.818951392,-123124053.22443
4500,-1400,0,4712.7486671793,-33037244.948027
4500,-7600,0,8832.3269867006,-195805354.1779
4500,-4200,0,6155.485358605,-107791523.97171
4500,-9800,0,10783.784122468,-247880460.57343
4500,-5800,0,7340.9808608932,-150420886.66384
4500,-3700,0,5825.8046654518,-94918682.721454
4500,-7800,0,9004.9986118822,-198829362.72451
4500,-300,0,4509.9889135119,-9047974.7412816
4500,-9700,0,10692.988356863,-247880460.57343
4500,-3500,0,5700.8771254957,-90307168.367466
4500,-5700,0,7262.2310621461,-143690978.35919
4500,-6200,0,7660.9398901179,-157759761.87785
4500,-7100,0,8405.950273467,-181597454.40575
4500,-2400,0,5100,-61653279.817079
4500,-8400,0,9529.4281045612,-215947165.50785
4500,-400,0,4517.7427992306,-9047974.7412816
4500,-9600,0,10602.358228243,-247880460.57343
4500,-8600,0,9706.1835960381,-220885475.21252
4500,-9500,0,10511.898020814,-240572553.64048
4500,-2100,0,4965.8836071741,-54831118.535007
4500,-6500,0,7905.6941504209,-165175701.09283
4500,-5100,0,6801.4704292528,-127560148.92511
4500,0,0,4500,-2143212.9359696
4500,-4800,0,6579.5136598384,-123124053.22443
4500,-3400,0,5640.0354608814,-90307168.367466
4500,-4100,0,6087.6925020898,-103401042.66073
4500,-7900,0,9091.7545061446,-204447553.64298
4500,-2700,0,5247.8567053608,-66270131.516404
4500,-4000,0,6020.7972893961,-101670183.24746
4500,-4500,0,6363.9610306789,-114484915.62224
4500,-500,0,4527.6925690687,-15867766.165488
4500,-6600,0,7988.1161734166,-170513344.48475
4500,-9400,0,10421.612159354,-240572553.64048
4500,-2000,0,4924.4289008981,-52720850.583998
4500,-600,0,4539.8237851265,-15867766.165488
4500,-7500,0,8746.427842268,-190261487.81564
4500,-3300,0,5580.3225713215,-80286928.624279
4500,-8000,0,9178.7798753429,-204447553.64298
4500,-9300,0,10331.505214634,-237411275.50162
4500,-2500,0,5147.8150704935,-61653279.817079
4500,-1900,0,4884.6698967279,-48426541.607303
4500,-700,0,4554.1190146943,-19803700.711168
4500,-3800,0,5889.8217290509,-94918682.721454
4500,-5400,0,7029.224708316,-136682663.82849
4500,-5500,0,7106.3352017759,-141274563.60018
4500,-6700,0,8070.9355095924,-170513344.48475
4500,-4300,0,6224.1465278382,-110196204.48091
4500,-5200,0,6876.7724987817,-134531680.18462
4500,-2900,0,5353.5035257297,-75539214.04236
4500,-9200,0,10241.581909061,-237411275.50162
4500,-4700,0,6506.919393999,-123124053.22443
4500,-3200,0,5521.7750769114,-80286928.624279
4500,-1300,0,4684.0153714521,-33037244.948027
4500,-7400,0,8660.8313688699,-190261487.81564
4500,-1600,0,4775.9815745038,-41760172.902808
4500,-800,0,4570.5579528106,-19803700.711168
4500,-6100,0,7580.2374632989,-155118190.44974
4500,-5600,0,7184.0100222647,-141274563.60018
4500,-9100,0,10151.847122568,-230757617.22821
4500,-2600,0,5197.1145840745,-66270131.516404
4500,-8100,0,9266.0671268883,-206257100.06782
4500,-6000,0,7500,-155118190.44974
4500,-6800,0,8154.1400527585,-173457050.64031
4500,-900,0,4589.1175622335,-19803700.711168
4500,-9000,0,10062.305898749,-226402479.67333
4500,-3100,0,5464.4304369257,-80286928.624279
4500,-1800,0,4846.6483264211,-46104714.097577
4500,-1000,0,4609.7722286464,-28583532.49089
4500,-4400,0,6293.6475910238,-110196204.48091
4500,-8700,0,9794.8966303887,-220885475.21252
4500,-7300,0,8575.5466298073,-187334897.27988
4500,-6900,0,8237.7181306476,-173457050.64031
4500,-8200,0,9353.6089291781,-206257100.06782
4500,-5300,0,6952.6973183075,-136682663.82849
4500,-4600,0,6435.0602172785,-114484915.62224
4500,-8900,0,9972.9634512516,-226402479.67333
4500,-3000,0,5408.326913196,-75539214.04236
4500,-1700,0,4810.4053883223,-41760172.902808
4500,-1200,0,4657.252408878,-28583532.49089
4500,-5900,0,7420.2425836357,-150420886.66384
4500,-3900,0,5954.8299723838,-101670183.24746
4500,-8300,0,9441.3982015377,-211353820.04511
4500,-1100,0,4632.4939287602,-28583532.49089
4500,-8800,0,9883.8251704489,-226402479.67333
4500,-7000,0,8321.6584885466,-178983378.61368
4600,-7000,0,8376.1566365488,-181597454.40575
4600,-2800,0,5385.1648071345,-72832637.457522
4600,-3500,0,5780.1384066474,-90307168.367466
4600,-2300,0,5142.9563482495,-59189995.583666
4600,-9600,0,10645.186705737,-247880460.57343
4600,-5700,0,7324.616030892,-143281280.90438
4600,-1500,0,4838.3881613612,-39370537.156419
4600,-6200,0,7720.1036262475,-157284730.62715
4600,-7100,0,8459.9054368237,-181597454.40575
4600,-8400,0,9577.0559150503,-215947165.50785
4600,-8800,0,9929.7532698451,-226402479.67333
4600,-2400,0,5188.4487084291,-59189995.583666
4600,-400,0,4617.3585522461,-9047974.7412816
4600,-6300,0,7800.6409993026,-162300612.91276
4600,-7800,0,9055.3851381374,-198829362.72451
4600,-3900,0,6030.7545133258,-100823445.36118
4600,-9700,0,10735.455276792,-247880460.57343
4600,-2100,0,5056.6787519082,-54831118.535007
4600,-9500,0,10555.093557141,-240572553.64048
4600,-1100,0,4729.6934361542,-28583532.49089
4600,-8600,0,9752.9482721893,-220885475.21252
4600,-8300,0,9489.4678459859,-215947165.50785
4600,-6500,0,7963.0396206474,-165175701.09283
4600,0,0,4600,-2143212.9359696
4600,-300,0,4609.7722286464,-9047974.7412816
4600,-5100,0,6868.0419334771,-129646082.09363
4600,-4800,0,6648.3080554379,-120876899.52101
4600,-3400,0,5720.13985843,-87000969.073914
4600,-5900,0,7481.3100457072,-150420886.66384
4600,-4000,0,6095.9002616513,-103401042.66073
4600,-1200,0,4753.9457296019,-28583532.49089
4600,-4100,0,6161.9802012016,-103401042.66073
4600,-1700,0,4904.0799340957,-41760172.902808
4600,-2700,0,5333.8541412378,-68240320.518548
4600,-7900,0,9141.6628684283,-198829362.72451
4600,-4500,0,6435.0602172785,-116524278.2413
4600,-8900,0,10018.482919085,-226402479.67333
4600,-3000,0,5491.8120870984,-75539214.04236
4600,-500,0,4627.0941205037,-12719658.685347
4600,-3700,0,5903.3888572582,-94918682.721454
4600,-6600,0,8044.8741444475,-170513344.48475
4600,-100,0,4601.0868281309,-4974720.5314167
4600,-9400,0,10465.180361561,-240572553.64048
4600,-5800,0,7402.7022093287,-147841326.77289
4600,-2000,0,5015.9744815938,-52544716.068029
4600,-7500,0,8798.2952894297,-187334897.27988
4600,-4600,0,6505.3823869162,-116524278.2413
4600,-9800,0,10825.894882179,-247880460.57343
4600,-600,0,4638.9654018973,-12719658.685347
4600,-3300,0,5661.2719418873,-82154985.932839
4600,-8000,0,9228.2175960475,-204447553.64298
4600,-9300,0,10375.451797392,-240572553.64048
4600,-9900,0,10916.501271012,-251251817.58851
4600,-1300,0,4780.1673610868,-33037244.948027
4600,-8500,0,9664.8848932618,-215947165.50785
4600,-4200,0,6228.964600959,-107791523.97171
4600,-1900,0,4976.9468552517,-46104714.097577
4600,-5300,0,7017.8344238091,-134188363.69738
4600,-10000,0,11007.270324654,-251251817.58851
4600,-2500,0,5235.4560450834,-66270131.516404
4600,-8200,0,9402.1274188345,-204447553.64298
4600,-700,0,4652.9560496527,-19803700.711168
4600,-6400,0,7881.6241980952,-165175701.09283
4600,-6900,0,8292.7679335672,-173457050.64031
4600,-5400,0,7093.6591403873,-136682663.82849
4600,-8700,0,9841.2397592986,-220885475.21252
4600,-7300,0,8628.4413424442,-187334897.27988
4600,-3800,0,5966.5735560705,-96354395.045811
4600,-1400,0,4808.3261120685,-35010455.80521
4600,-4900,0,6720.8630398186,-123124053.22443
4600,-5500,0,7170.0767080973,-141274563.60018
4600,-6700,0,8127.1151093115,-170513344.48475
4600,-1000,0,4707.4409183759,-26121726.894462
4600,-4400,0,6365.5321851358,-114484915.62224
4600,-4300,0,6296.8245965725,-107791523.97171
4600,-5200,0,6942.6219830839,-134188363.69738
4600,-7200,0,8544.0037453175,-181597454.40575
4600,-9200,0,10285.912696499,-240572553.64048
4600,-2900,0,5437.830449729,-72832637.457522
4600,-200,0,4604.3457732885,-4974720.5314167
4600,-3100,0,5547.0712993435,-80286928.624279
4600,-4700,0,6576.473218983,-120876899.52101
4600,-5000,0,6794.1151005852,-127560148.92511
4600,-3200,0,5603.5702904488,-82154985.932839
4600,-1800,0,4939.6356140914,-46104714.097577
4600,-7400,0,8713.2083643168,-187334897.27988
4600,-7600,0,8883.6929258051,-195805354.1779
4600,-2200,0,5099.0195135928,-54831118.535007
4600,-9000,0,10107.423014795,-226402479.67333
4600,-1600,0,4870.3182647544,-41760172.902808
4600,-800,0,4669.0470119715,-21656658.490273
4600,-6100,0,7640.0261779656,-155118190.44974
4600,-3600,0,5841.2327466041,-90307168.367466
4600,-5600,0,7247.0683727974,-143281280.90438
4600,-9100,0,10196.568050084,-226402479.67333
4600,-6800,0,8209.7503007095,-170513344.48475
4600,-7700,0,8969.3923985965,-198829362.72451
4600,-2600,0,5283.9379254492,-68240320.518548
4600,-8100,0,9315.0415994777,-204447553.64298
4600,-900,0,4687.2166581032,-21656658.490273
4600,-6000,0,7560.4232685743,-155118190.44974
4700,-7600,0,8935.882720806,-196010099.98487
4700,-7100,0,8514.6931829632,-181597454.40575
4700,-9600,0,10688.779163216,-247880460.57343
4700,-6000,0,7621.6796049165,-157284730.62715
4700,-8100,0,9364.8278147545,-204447553.64298
4700,-900,0,4785.3944456022,-21656658.490273
4700,-2300,0,5232.5901807805,-61323141.797419
4700,-6200,0,7780.102827084,-157284730.62715
4700,-2600,0,5371.2196007983,-65763289.550952
4700,-8300,0,9538.3436717283,-214193647.84842
4700,-8500,0,9712.8780492705,-215947165.50785
4700,-7000,0,8431.4885992925,-178588306.24871
4700,-1600,0,4964.8766349226,-39370537.156419
4700,-6800,0,8266.196223173,-173018724.67307
4700,-9100,0,10242.070103255,-228620524.06763
4700,-8800,0,9976.4723224194,-226402479.67333
4700,-7700,0,9021.0864090751,-198829362.72451
4700,-2400,0,5277.3099207835,-61323141.797419
4700,-7200,0,8598.2556370464,-181597454.40575
4700,-400,0,4716.9905660283,-12719658.685347
4700,-3600,0,5920.3040462463,-88966693.932436
4700,-6100,0,7700.6493232714,-157284730.62715
4700,-2200,0,5189.4122981316,-52544716.068029
4700,-5700,0,7387.8278269056,-143281280.90438
4700,-800,0,4767.5989764241,-21656658.490273
4700,-3900,0,6107.372593841,-100823445.36118
4700,-9000,0,10153.324578679,-228620524.06763
4700,-5600,0,7310.9506905737,-143281280.90438
4700,-7800,0,9106.5910196956,-198829362.72451
4700,-2100,0,5147.8150704935,-52544716.068029
4700,-9500,0,10599.056561789,-240572553.64048
4700,-1100,0,4827.0073544589,-26121726.894462
4700,-8600,0,9800.5101908013,-215947165.50785
4700,-1800,0,5032.8918128646,-48111418.270359
4700,-6500,0,8021.2218520622,-165175701.09283
4700,-7400,0,8766.4131775772,-187334897.27988
4700,-300,0,4709.5647357266,-4974720.5314167
4700,-4000,0,6171.7096496838,-100823445.36118
4700,-3200,0,5685.9475903318,-82154985.932839
4700,-8400,0,9625.4870006665,-214193647.84842
4700,-1400,0,4904.0799340957,-35010455.80521
4700,-5800,0,7465.2528423356,-147841326.77289
4700,-5000,0,6862.2153857191,-129646082.09363
4700,-1500,0,4933.5585534176,-39370537.156419
4700,-5100,0,6935.4163537599,-129646082.09363
4700,-2900,0,5522.6805085936,-72832637.457522
4700,-3100,0,5630.2753041037,-79497831.512086
4700,-4700,0,6646.8037431535,-120876899.52101
4700,-3500,0,5860.0341295934,-87000969.073914
4700,-3400,0,5800.8620049093,-87000969.073914
4700,-4300,0,6370.2433234532,-109717000.22252
4700,-4400,0,6438.1674411279,-114158026.78447
4700,-4800,0,6717.8865724274,-120876899.52101
4700,-9700,0,10778.682665335,-251251817.58851
4700,-7500,0,8850.9886453435,-190057926.29134
4700,-5200,0,7009.27956355,-134188363.69738
4700,0,0,4700,-2933911.4051795
4700,-5900,0,7543.2088662584,-147841326.77289
4700,-6300,0,7860.0254452514,-162300612.91276
4700,-5500,0,7234.6388990744,-143281280.90438
4700,-4900,0,6789.6980787072,-122972770.88764
4700,-4100,0,6236.9864518051,-103401042.66073
4700,-6700,0,8184.130986244,-173018724.67307
4700,-1000,0,4805.2055106936,-26121726.894462
4700,-1200,0,4850.773134254,-32592671.781215
4700,-2700,0,5420.3320931471,-68240320.518548
4700,-9200,0,10331.021246711,-236120485.61892
4700,-1700,0,4997.9995998399,-39370537.156419
4700,-3000,0,5575.8407437803,-74930239.063351
4700,-500,0,4726.5209192386,-12719658.685347
4700,-3800,0,6044.0052945046,-96354395.045811
4700,-7300,0,8682.1656284593,-187334897.27988
4700,-8700,0,9888.3770154662,-220885475.21252
4700,-10000,0,11049.434374664,-251251817.58851
4700,-7900,0,9192.3881554251,-198829362.72451
4700,-6900,0,8348.6525858967,-178588306.24871
4700,-3700,0,5981.6385714953,-96354395.045811
4700,-700,0,4751.8417482067,-18949111.339525
4700,-4500,0,6506.919393999,-114158026.78447
4700,-5400,0,7158.9105316382,-134188363.69738
4700,-2500,0,5323.5326616825,-65763289.550952
4700,-8200,0,9451.4549144563,-207799751.52748
4700,-6600,0,8102.4687595819,-170513344.48475
4700,-5300,0,7083.7842993699,-134188363.69738
4700,-1900,0,5069.5167422546,-48111418.270359
4700,-9400,0,10509.519494249,-240572553.64048
4700,-6400,0,7940.4030124421,-162300612.91276
4700,-100,0,4701.0637094173,-4974720.5314167
4700,-4200,0,6303.1738037278,-107791523.97171
4700,-2000,0,5107.8371156489,-52544716.068029
4700,-2800,0,5470.831746636,-72832637.457522
4700,-3300,0,5742.8216061445,-82154985.932839
4700,-9300,0,10420.17274329,-236120485.61892
4700,-4600,0,6576.473218983,-116524278.2413
4700,-600,0,4738.1430961929,-13938859.007205
4700,-8000,0,9278.4697014109,-204447553.64298
4700,-8900,0,10064.790112069,-228620524.06763
4700,-1300,0,4876.4741360946,-35010455.80521
4700,-9800,0,10868.762579061,-251251817.58851
4700,-9900,0,10959.014554238,-251251817.58851
4700,-200,0,4704.2533945356,-4974720.5314167
4800,-8500,0,9761.6596949494,-214193647.84842
4800,-1300,0,4972.9267036625,-32592671.781215
4800,-600,0,4837.3546489791,-13938859.007205
4800,-4200,0,6378.0874876408,-107210042.42488
4800,-4600,0,6648.3080554379,-116213374.34948
4800,-9300,0,10465.658125507,-236120485.61892
4800,-9900,0,11002.272492535,-251251817.58851
4800,-8400,0,9674.7092979583,-214193647.84842
4800,-8200,0,9501.5788161758,-207799751.52748
4800,-8900,0,10111.874208078,-228620524.06763
4800,-3300,0,5824.9463516843,-87000969.073914
4800,-6900,0,8405.3554356731,-178588306.24871
4800,-100,0,4801.0415536631,-2933911.4051795
4800,-6600,0,8160.8823052413,-170145107.09211
4800,-8000,0,9329.5230317525,-207799751.52748
4800,-4500,0,6579.5136598384,-114158026.78447
4800,-5300,0,7150.5244562899,-136245885.48564
4800,-1900,0,5162.3637996561,-48111418.270359
4800,-9400,0,10554.619841567,-236120485.61892
4800,-2800,0,5556.9775957799,-74930239.063351
4800,-5400,0,7224.9567472754,-136245885.48564
4800,-1500,0,5028.9163842721,-39370537.156419
4800,-8700,0,9936.2970970075,-224530751.98613
4800,-2000,0,5200,-52544716.068029
4800,-3000,0,5660.388679234,-74930239.063351
4800,-700,0,4850.773134254,-18949111.339525
4800,-7900,0,9243.9169187093,-198829362.72451
4800,-2500,0,5412.0236510939,-65763289.550952
4800,-3700,0,6060.5280298007,-93699410.547895
4800,-500,0,4825.9714048055,-13938859.007205
4800,-3800,0,6122.0911460056,-96354395.045811
4800,-7300,0,8736.7041840731,-190057926.29134
4800,-1200,0,4947.7267507412,-32592671.781215
4800,-1700,0,5092.1508225896,-41178104.047883
4800,-9200,0,10376.897416858,-236120485.61892
4800,-7600,0,8988.8820216977,-196010099.98487
4800,-1000,0,4903.0602688525,-28146455.713103
4800,-6700,0,8241.9657849326,-173018724.67307
4800,-4100,0,6312.6856408347,-102712053.10815
4800,-9700,0,10822.661410208,-251251817.58851
4800,-2700,0,5507.2679252057,-65763289.550952
4800,-5500,0,7300,-140752317.20671
4800,-5200,0,7076.7224051817,-134188363.69738
4800,-7500,0,8904.4932477935,-190057926.29134
4800,-4900,0,6859.300255857,-122972770.88764
4800,-6400,0,8000,-162300612.91276
4800,-5900,0,7605.9187479226,-149758533.10412
4800,-6300,0,7920.2272694665,-162300612.91276
4800,-4800,0,6788.2250993909,-122972770.88764
4800,-3500,0,5940.5386961117,-88966693.932436
4800,-3600,0,6000,-93699410.547895
4800,-3400,0,5882.1764679411,-88966693.932436
4800,-4700,0,6717.8865724274,-122972770.88764
4800,-5100,0,7003.5705179573,-127311387.0156
4800,-4300,0,6444.3773942872,-109717000.22252
4800,-5000,0,6931.0893804654,-127311387.0156
4800,-3100,0,5714.0178508647,-79497831.512086
4800,-10000,0,11092.33969909,-251251817.58851
4800,-3200,0,5768.8820407424,-79497831.512086
4800,-2400,0,5366.5631459995,-61323141.797419
4800,-9800,0,10912.378292563,-251251817.58851
4800,-7400,0,8820.43082848,-190057926.29134
4800,-6500,0,8080.2227692063,-164754250.09718
4800,-2900,0,5608.029957124,-74930239.063351
4800,-4000,0,6248.1997407253,-102712053.10815
4800,-8600,0,9848.8578017961,-214193647.84842
4800,-1800,0,5126.4022471905,-45577832.408484
4800,-7000,0,8487.6380695692,-178588306.24871
4800,-1400,0,5000,-35010455.80521
4800,-6100,0,7762.08734813,-154513179.30953
4800,-9500,0,10643.77752492,-236120485.61892
4800,-300,0,4809.3658625644,-2933911.4051795
4800,-1100,0,4924.4289008981,-28146455.713103
4800,-6000,0,7683.7490849194,-154513179.30953
4800,-2100,0,5239.2747589719,-54662452.193424
4800,-2300,0,5322.5933528685,-59084583.838982
4800,-5700,0,7451.8454090245,-147841326.77289
4800,-7800,0,9158.6025134842,-196010099.98487
4800,-5600,0,7375.6355658343,-143281280.90438
4800,-9000,0,10200,-228620524.06763
4800,-7200,0,8653.3230611136,-178588306.24871
4800,-800,0,4866.2100242386,-18949111.339525
4800,-400,0,4816.6378315169,-13938859.007205
4800,-2200,0,5280.1515129776,-54662452.193424
4800,-8800,0,10023.971268913,-228620524.06763
4800,-6800,0,8323.4608186739,-173018724.67307
4800,-7700,0,9073.5880444287,-196010099.98487
4800,-9100,0,10288.34291808,-228620524.06763
4800,0,0,4800,-2933911.4051795
4800,-900,0,4883.6461788299,-21656658.490273
4800,-8300,0,9588.0133500116,-214193647.84842
4800,-2600,0,5458.9376255825,-65763289.550952
4800,-6200,0,7840.9183135651,-157284730.62715
4800,-3900,0,6184.6584384265,-100823445.36118
4800,-4400,0,6511.5282384399,-114158026.78447
4800,-8100,0,9415.4128958851,-207799751.52748
4800,-9600,0,10733.126291999,-251251817.58851
4800,-1600,0,5059.6442562694,-41178104.047883
4800,-7100,0,8570.2975444263,-178588306.24871
4800,-5800,0,7528.6120898875,-147841326.77289
4800,-200,0,4804.1648597857,-2933911.4051795
4900,-5800,0,7592.7597090913,-149758533.10412
4900,-9600,0,10778.218776774,-247435766.91421
4900,-6200,0,7902.5312400521,-154513179.30953
4900,-400,0,4916.2994213127,-10778067.646377
4900,-7800,0,9211.4059730315,-196010099.98487
4900,-7100,0,8626.7027304759,-181250410.12885
4900,-2100,0,5331.0411741047,-54662452.193424
4900,-300,0,4909.1750834534,-5470093.0167128
4900,-9500,0,10689.24693325,-239615917.54382
4900,-6500,0,8140.0245699875,-164754250.09718
4900,-3400,0,5964.0590204994,-86298782.602233
4900,-2400,0,5456.1891462815,-59084583.838982
4900,-5700,0,7516.6481891865,-146840893.91562
4900,-2800,0,5643.580423809,-72541437.072369
4900,-7200,0,8709.1905479212,-181250410.12885
4900,-5100,0,7072.4818840348,-129460729.58468
4900,-4800,0,6859.300255857,-120674763.35465
4900,-3500,0,6021.6276869298,-88966693.932436
4900,-6400,0,8060.3970125547,-164754250.09718
4900,-2700,0,5594.6402922797,-67971878.617868
4900,-7500,0,8958.79456177,-190057926.29134
4900,-4100,0,6389.0531379853,-102712053.10815
4900,-9700,0,10867.382389518,-247435766.91421
4900,-3700,0,6140.0325732035,-93699410.547895
4900,-500,0,4925.4441424099,-10778067.646377
4900,-7900,0,9296.2357973537,-198836332.28772
4900,-2000,0,5292.4474489597,-52249008.108813
4900,-9400,0,10600.471687618,-239615917.54382
4900,-6600,0,8220.0973230248,-170145107.09211
4900,-3300,0,5907.6221950968,-86298782.602233
4900,-4200,0,6453.681120105,-107210042.42488
4900,-4500,0,6652.818951392,-116213374.34948
4900,-8600,0,9897.9795918157,-217775212.99032
4900,-600,0,4936.598018879,-13938859.007205
4900,-200,0,4904.0799340957,-5470093.0167128
4900,-1300,0,5069.5167422546,-32592671.781215
4900,-10000,0,11135.977729863,-251251817.58851
4900,-9300,0,10511.898020814,-236120485.61892
4900,-8000,0,9381.3645062965,-205005329.56339
4900,-5400,0,7291.7761896537,-136245885.48564
4900,-1900,0,5255.4733373884,-47596830.653798
4900,-700,0,4949.7474683058,-18949111.339525
4900,-8400,0,9724.7107926149,-214193647.84842
4900,-2500,0,5500.90901579,-67971878.617868
4900,-1500,0,5124.4511901276,-38753802.436258
4900,-9200,0,10423.531071571,-236120485.61892
4900,-3800,0,6200.806399171,-95602044.604696
4900,0,0,4900,-2933911.4051795
4900,-5200,0,7144.9282711585,-133861175.13124
4900,-4900,0,6929.6464556282,-122972770.88764
4900,-4700,0,6789.6980787072,-120674763.35465
4900,-5000,0,7000.7142492749,-127311387.0156
4900,-4300,0,6519.2024052026,-107210042.42488
4900,-7400,0,8875.2464754507,-190057926.29134
4900,-6700,0,8300.6023877789,-170145107.09211
4900,-3200,0,5852.3499553598,-81676965.810845
4900,-5500,0,7366.1387442812,-140752317.20671
4900,-6100,0,7824.3210568074,-154513179.30953
4900,-5600,0,7441.1020689143,-140752317.20671
4900,-1400,0,5096.0769224964,-34520257.357706
4900,-800,0,4964.8766349226,-20910614.754995
4900,-2900,0,5693.8563381947,-72541437.072369
4900,-2200,0,5371.2196007983,-54662452.193424
4900,-7700,0,9126.8833672837,-196010099.98487
4900,-8500,0,9811.2180691288,-214193647.84842
4900,-7000,0,8544.5889310136,-178588306.24871
4900,-9100,0,10335.376142163,-228620524.06763
4900,-4400,0,6585.5903304108,-116213374.34948
4900,-8100,0,9466.7840368311,-207799751.52748
4900,-1800,0,5220.1532544553,-45577832.408484
4900,-900,0,4981.9674828325,-20910614.754995
4900,-6800,0,8381.5273071201,-173018724.67307
4900,-9000,0,10247.438704379,-228620524.06763
4900,-3100,0,5798.2756057297,-79497831.512086
4900,-9800,0,10956.733089749,-251251817.58851
4900,-6000,0,7746.6121627457,-154513179.30953
4900,-3600,0,6080.2960454241,-93699410.547895
4900,-6300,0,7981.227975694,-164754250.09718
4900,-2600,0,5547.0712993435,-67971878.617868
4900,-7300,0,8792.0418561333,-186991722.66179
4900,-1000,0,5000.99990002,-25659028.964666
4900,-7600,0,9042.6765949026,-196010099.98487
4900,-8700,0,9984.9887330933,-224530751.98613
4900,-5300,0,7218.0329730474,-136245885.48564
4900,-8900,0,10159.724405711,-228620524.06763
4900,-4600,0,6720.8630398186,-116213374.34948
4900,-1200,0,5044.7993022518,-32592671.781215
4900,-100,0,4901.0203019371,-2933911.4051795
4900,-8200,0,9552.4865872714,-207799751.52748
4900,-1700,0,5186.520991956,-45577832.408484
4900,-6900,0,8462.8600366543,-178588306.24871
4900,-3000,0,5745.4329688893,-74930239.063351
4900,-2300,0,5412.9474410897,-59084583.838982
4900,-5900,0,7669.4197955256,-149758533.10412
4900,-1100,0,5021.9518117959,-28146455.713103
4900,-8800,0,10072.239075796,-224530751.98613
4900,-8300,0,9638.4646080172,-214193647.84842
4900,-3900,0,6262.5873247405,-102712053.10815
4900,-1600,0,5154.6095875439,-41178104.047883
4900,-4000,0,6325.3458403474,-102712053.10815
4900,-9900,0,11046.266337546,-251251817.58851
5000,-5000,0,7071.0678118655,-129460729.58468
5000,-6900,0,8521.1501571091,-178384250.18705
5000,-2400,0,5546.1698495448,-61113501.206972
5000,-7500,0,9013.87818866,-186991722.66179
5000,-7600,0,9097.2523324353,-196010099.98487
5000,-2500,0,5590.1699437495,-65561361.783941
5000,-7400,0,8930.8454247064,-186991722.66179
5000,-2300,0,5503.6351623268,-61113501.206972
5000,-7700,0,9180.9585556193,-198836332.28772
5000,-2600,0,5635.6011214421,-65561361.783941
5000,-7300,0,8848.1636512895,-186991722.66179
5000,-2200,0,5462.6001134991,-54662452.193424
5000,-7800,0,9264.9878575204,-198836332.28772
5000,-2700,0,5682.4290580701,-67971878.617868
5000,-7200,0,8765.8428003244,-181250410.12885
5000,-2100,0,5423.0987451825,-52249008.108813
5000,-7900,0,9349.3315269061,-198836332.28772
5000,-2800,0,5730.6195127578,-72541437.072369
5000,-7100,0,8683.8931361458,-181250410.12885
5000,-2000,0,5385.1648071345,-52249008.108813
5000,-8000,0,9433.9811320566,-205005329.56339
5000,-2900,0,5780.1384066474,-72541437.072369
5000,-7000,0,8602.3252670426,-181250410.12885
5000,-1900,0,5348.8316481265,-47596830.653798
5000,-8100,0,9518.9285111298,-205005329.56339
5000,-3000,0,5830.9518948453,-74737259.093252
5000,-1800,0,5314.1321022346,-47596830.653798
5000,-8200,0,9604.1657628344,-207799751.52748
5000,-3100,0,5883.0264320331,-81676965.810845
5000,-6800,0,8440.3791384037,-172838156.49524
5000,-1700,0,5281.0983706044,-45577832.408484
5000,-8300,0,9689.6852374058,-214193647.84842
5000,-3200,0,5936.3288318623,-81676965.810845
5000,-6700,0,8360.0239234107,-170145107.09211
5000,-1600,0,5249.7618993627,-38753802.436258
5000,-8400,0,9775.47952788,-217775212.99032
5000,-3300,0,5990.8263203001,-86298782.602233
5000,-6600,0,8280.0966177938,-170145107.09211
5000,-1500,0,5220.1532544553,-38753802.436258
5000,-8500,0,9861.541461658,-217775212.99032
5000,-3400,0,6046.4865831324,-86298782.602233
5000,-6500,0,8200.6097334284,-164754250.09718
5000,-1400,0,5192.3019942989,-34520257.357706
5000,-8600,0,9947.8640923567,-217775212.99032
5000,-3500,0,6103.2778078669,-86298782.602233
5000,-6400,0,8121.5762016988,-161975998.35188
5000,-1300,0,5166.2365412358,-34520257.357706
5000,-8700,0,10034.440691937,-224530751.98613
5000,-3600,0,6161.1687202997,-95602044.604696
5000,-6300,0,8043.0093870392,-161975998.35188
5000,-1200,0,5141.984052873,-34520257.357706
5000,-8800,0,10121.264743104,-224530751.98613
5000,-3700,0,6220.1286160336,-95602044.604696
5000,-6200,0,7964.923100696,-156742233.59156
5000,-3800,0,6280.127387243,-95602044.604696
5000,-1100,0,5119.5702944681,-25659028.964666
5000,-8900,0,10208.329931972,-224530751.98613
5000,-6100,0,7887.3316146844,-156742233.59156
5000,-3900,0,6341.1355449951,-100140386.59139
5000,-1000,0,5099.0195135928,-25659028.964666
5000,-9000,0,10295.630140987,-228620524.06763
5000,-6000,0,7810.2496759067,-154513179.30953
5000,-4000,0,6403.1242374328,-100140386.59139
5000,-900,0,5080.3543183522,-20910614.754995
5000,-9100,0,10383.159442097,-236120485.61892
5000,-5900,0,7733.6925203941,-149758533.10412
5000,-4100,0,6466.0652641309,-102712053.10815
5000,-800,0,5063.5955604689,-20910614.754995
5000,-9200,0,10470.912090167,-239615917.54382
5000,-5800,0,7657.6758876307,-146840893.91562
5000,-4200,0,6529.9310869258,-109213495.13061
5000,-700,0,5048.7622245457,-20910614.754995
5000,-9300,0,10558.88251663,-239615917.54382
5000,-5700,0,7582.2160349069,-146840893.91562
5000,-4300,0,6594.694837519,-109213495.13061
5000,-600,0,5035.8713248057,-10778067.646377
5000,-9400,0,10647.065323365,-239615917.54382
5000,-10000,0,11180.339887499,-251251817.58851
5000,0,0,5000,-2933911.4051795
5000,-5600,0,7507.3297516494,-142387727.5863
5000,-4400,0,6660.3303221387,-113771448.45659
5000,-500,0,5024.9378105604,-10778067.646377
5000,-9500,0,10735.455276792,-239615917.54382
5000,-5500,0,7433.0343736593,-142387727.5863
5000,-4500,0,6726.8120235369,-113771448.45659
5000,-400,0,5015.9744815938,-10778067.646377
5000,-9600,0,10824.047302188,-247435766.91421
5000,-5400,0,7359.3477971896,-136245885.48564
5000,-4600,0,6794.1151005852,-116213374.34948
5000,-300,0,5008.9919145473,-5470093.0167128
5000,-9700,0,10912.836478203,-247435766.91421
5000,-5300,0,7286.2884927787,-133861175.13124
5000,-4700,0,6862.2153857191,-120674763.35465
5000,-200,0,5003.9984012787,-5470093.0167128
5000,-9800,0,11001.81803158,-247435766.91421
5000,-5200,0,7213.8755187486,-133861175.13124
5000,-4800,0,6931.0893804654,-123134320.59852
5000,-100,0,5000.99990002,-5470093.0167128
5000,-9900,0,11090.987332064,-247435766.91421
5000,-5100,0,7142.1285342676,-129460729.58468
5000,-4900,0,7000.7142492749,-123134320.59852
5100,-5600,0,7574.2986473996,-142387727.5863
5100,-6300,0,8105.5536516638,-161975998.35188
5100,-8500,0,9912.618221237,-217775212.99032
5100,-600,0,5135.1728305871,-13036989.470363
5100,-2300,0,5594.6402922797,-58824146.960564
5100,-10000,0,11225.417586887,-251161492.3008
5100,-9400,0,10694.391053258,-239615917.54382
5100,-1500,0,5316.0135440008,-38753802.436258
5100,-7000,0,8660.8313688699,-178384250.18705
5100,-4700,0,6935.4163537599,-123134320.59852
5100,-7600,0,9152.5952603619,-195528806.44503
5100,-4300,0,6670.8320320632,-109213495.13061
5100,-7700,0,9235.7999112151,-198836332.28772
5100,-2800,0,5818.0752831155,-74737259.093252
5100,-2900,0,5866.8560575491,-74737259.093252
5100,-6600,0,8340.8632646747,-172838156.49524
5100,-7400,0,8987.2131386765,-186991722.66179
5100,-3400,0,6129.4371682888,-88649447.411382
5100,-5700,0,7648.5292703892,-146840893.91562
5100,-7900,0,9403.1909477581,-198836332.28772
5100,-1900,0,5442.4259296751,-47596830.653798
5100,-200,0,5103.9200620699,-5470093.0167128
5100,-6500,0,8261.9610262939,-161975998.35188
5100,-9300,0,10606.601717798,-239615917.54382
5100,-700,0,5147.8150704935,-18182968.422471
5100,-9800,0,11047.624178981,-247435766.91421
5100,-8100,0,9571.8336801263,-205005329.56339
5100,-2100,0,5515.4328932551,-52249008.108813
5100,-7500,0,9069.7298746986,-189633259.38472
5100,0,0,5100,-2640248.6088521
5100,-1400,0,5288.6671288709,-34520257.357706
5100,-8600,0,9998.4998874831,-217775212.99032
5100,-4200,0,6606.8146636636,-109213495.13061
5100,-3000,0,5916.9248769948,-74737259.093252
5100,-3500,0,6185.4668376768,-88649447.411382
5100,-2600,0,5724.5087125447,-65561361.783941
5100,-5300,0,7355.2702193733,-134833121.24619
5100,-5800,0,7723.3412458599,-146840893.91562
5100,-7200,0,8823.2647019116,-181250410.12885
5100,-6400,0,8183.5200250259,-161975998.35188
5100,-9200,0,10519.030373566,-239615917.54382
5100,-800,0,5162.3637996561,-18182968.422471
5100,-9700,0,10959.014554238,-247435766.91421
5100,-3300,0,6074.537019395,-86298782.602233
5100,-8000,0,9487.3600121425,-205005329.56339
5100,-300,0,5108.8159097779,-5470093.0167128
5100,-4100,0,6543.6992595932,-106658102.51339
5100,-5900,0,7798.7178433381,-148730357.83938
5100,-1300,0,5263.0789467763,-32161687.286857
5100,-8700,0,10084.641788383,-224530751.98613
5100,-4400,0,6735.7256476196,-113771448.45659
5100,-5100,0,7212.4891681028,-127582130.83261
5100,-5200,0,7283.5430938521,-134833121.24619
5100,-3600,0,6242.5956140054,-93215978.884859
5100,-4600,0,6868.0419334771,-113771448.45659
5100,-2500,0,5679.7887284652,-65561361.783941
5100,-500,0,5124.4511901276,-13036989.470363
5100,-9500,0,10782.393055347,-239615917.54382
5100,-8400,0,9827.0036124955,-217775212.99032
5100,-1600,0,5345.0912059571,-40528947.429657
5100,-4900,0,7072.4818840348,-123134320.59852
5100,-6900,0,8580.2097876451,-178384250.18705
5100,-2000,0,5478.1383699209,-52249008.108813
5100,-6700,0,8420.2137740084,-172838156.49524
5100,-1200,0,5239.2747589719,-32161687.286857
5100,-9100,0,10431.682510506,-235769406.43933
5100,-900,0,5178.8029504896,-20910614.754995
5100,-5000,0,7142.1285342676,-127582130.83261
5100,-8800,0,10171.037311897,-224530751.98613
5100,-3700,0,6300.7936008093,-93215978.884859
5100,-1800,0,5408.326913196,-44976585.38749
5100,-4000,0,6481.5121692395,-102087859.15137
5100,-5400,0,7427.651041884,-138863408.54098
5100,-5500,0,7500.6666370397,-142387727.5863
5100,-6000,0,7874.642849044,-153878619.6179
5100,-3200,0,6020.7972893961,-79299717.928578
5100,-6200,0,8028.0757345705,-156742233.59156
5100,-8300,0,9741.663102366,-214309668.69789
5100,-9900,0,11136.426715962,-251161492.3008
5100,-7300,0,8905.0547443573,-186991722.66179
5100,-8200,0,9656.603957914,-205005329.56339
5100,-100,0,5100.9802979427,-2640248.6088521
5100,-1700,0,5375.8720222862,-44976585.38749
5100,-2700,0,5770.6152185014,-65561361.783941
5100,-1100,0,5217.2789842982,-27734173.680815
5100,-9000,0,10344.56378974,-224530751.98613
5100,-1000,0,5197.1145840745,-27734173.680815
5100,-3800,0,6360.0314464631,-95602044.604696
5100,-6800,0,8500,-172838156.49524
5100,-9600,0,10870.602559196,-247435766.91421
5100,-3900,0,6420.2803677098,-100140386.59139
5100,-2200,0,5554.2776307995,-54378489.106955
5100,-7800,0,9319.3347402054,-198836332.28772
5100,-3100,0,5968.2493245507,-79299717.928578
5100,-400,0,5115.6622249715,-10778067.646377
5100,-8900,0,10257.680049602,-224530751.98613
5100,-6100,0,7951.1005527537,-156742233.59156
5100,-2400,0,5636.4882684168,-61113501.206972
5100,-4500,0,6801.4704292528,-113771448.45659
5100,-7100,0,8741.8533504057,-181250410.12885
5100,-4800,0,7003.5705179573,-123134320.59852
5200,-7100,0,8800.5681634767,-178384250.18705
5200,-4500,0,6876.7724987817,-115984655.79968
5200,-2400,0,5727.1284253105,-58824146.960564
5200,-6100,0,8015.6097709407,-153878619.6179
5200,-8900,0,10307.764064044,-228191443.01857
5200,-7800,0,9374.4333162064,-195528806.44503
5200,-400,0,5215.3619241621,-13036989.470363
5200,-3100,0,6053.9243470661,-79299717.928578
5200,-3900,0,6500,-102087859.15137
5200,-9600,0,10917.875251165,-247435766.91421
5200,-3800,0,6440.4968752418,-95410602.012274
5200,-6800,0,8560.3738236131,-172838156.49524
5200,-1000,0,5295.2809179495,-27734173.680815
5200,-8200,0,9709.7888751507,-207931429.85836
5200,-9000,0,10394.229168149,-228191443.01857
5200,-1100,0,5315.0729063673,-27734173.680815
5200,-2200,0,5646.2376853972,-54378489.106955
5200,-1700,0,5470.831746636,-44976585.38749
5200,-100,0,5200.9614495783,-2640248.6088521
5200,-9900,0,11182.575731914,-251161492.3008
5200,-8300,0,9794.3861471764,-214309668.69789
5200,-2700,0,5859.1808301161,-67605718.892182
5200,-7300,0,8962.7004859027,-189633259.38472
5200,-6200,0,8091.9713296576,-153878619.6179
5200,-5400,0,7496.6659255965,-138863408.54098
5200,-6000,0,7939.7732965117,-153878619.6179
5200,-5500,0,7569.0157880665,-138863408.54098
5200,-3200,0,6105.7350089895,-81601725.686395
5200,-8800,0,10221.545871345,-224530751.98613
5200,-3700,0,6382.0059542435,-93215978.884859
5200,-1800,0,5502.726596879,-44976585.38749
5200,-5000,0,7213.8755187486,-127582130.83261
5200,-4000,0,6560.4877867427,-102087859.15137
5200,-900,0,5277.3099207835,-20383644.349267
5200,-10000,0,11271.202242884,-251161492.3008
5200,-9100,0,10480.935072788,-235769406.43933
5200,-6700,0,8481.155581641,-170173463.56848
5200,-2000,0,5571.3553108736,-54378489.106955
5200,-1200,0,5336.6656256505,-32161687.286857
5200,-6900,0,8640.0231481171,-178384250.18705
5200,-6300,0,8168.8432473637,-164695565.26685
5200,-2500,0,5769.7486947007,-65561361.783941
5200,-1600,0,5440.5882034942,-40528947.429657
5200,-2300,0,5685.9475903318,-58824146.960564
5200,-9500,0,10830.050784738,-239615917.54382
5200,-8400,0,9879.2712281828,-214309668.69789
5200,-500,0,5223.9831546436,-13036989.470363
5200,-3600,0,6324.5553203368,-93215978.884859
5200,-5900,0,7864.4770964127,-148730357.83938
5200,-4600,0,6942.6219830839,-115984655.79968
5200,-4400,0,6811.7545463706,-113771448.45659
5200,-5100,0,7283.5430938521,-130745279.08616
5200,-5200,0,7353.9105243401,-130745279.08616
5200,-4900,0,7144.9282711585,-123134320.59852
5200,-8700,0,10135.580891098,-224530751.98613
5200,-4800,0,7076.7224051817,-120879620.19253
5200,0,0,5200,-2640248.6088521
5200,-1300,0,5360.037313303,-32161687.286857
5200,-300,0,5208.6466572422,-5126332.573068
5200,-4100,0,6621.9332524573,-106658102.51339
5200,-8000,0,9541.4883535013,-205005329.56339
5200,-3300,0,6158.7336360651,-86324726.467624
5200,-800,0,5261.1785751864,-18182968.422471
5200,-9700,0,11005.907504609,-251161492.3008
5200,-9200,0,10567.875850898,-235769406.43933
5200,-6400,0,8246.2112512353,-164695565.26685
5200,-7200,0,8881.4413244698,-181182046.01185
5200,-5800,0,7789.7368376602,-148730357.83938
5200,-5300,0,7424.9579123386,-134833121.24619
5200,-2600,0,5813.7767414995,-67605718.892182
5200,-2800,0,5905.9292240934,-72208252.255596
5200,-3500,0,6268.1735776859,-88649447.411382
5200,-3000,0,6003.3324079215,-74737259.093252
5200,-8600,0,10049.875621121,-217775212.99032
5200,-4200,0,6684.3099868274,-106658102.51339
5200,-700,0,5246.903848938,-18182968.422471
5200,-1400,0,5385.1648071345,-34066813.348234
5200,-2100,0,5608.029957124,-54378489.106955
5200,-8100,0,9625.4870006665,-207931429.85836
5200,-9800,0,11094.142598687,-251161492.3008
5200,-5600,0,7641.9892698171,-138863408.54098
5200,-9300,0,10655.045753069,-235769406.43933
5200,-6500,0,8324.0615086627,-164695565.26685
5200,-5700,0,7715.5686763841,-148730357.83938
5200,-200,0,5203.8447325031,-2640248.6088521
5200,-1900,0,5536.2442142666,-44976585.38749
5200,-7900,0,9457.8010129205,-198836332.28772
5200,-3400,0,6212.8898268036,-88649447.411382
5200,-7400,0,9044.335243676,-189633259.38472
5200,-7600,0,9208.6915465771,-195528806.44503
5200,-6600,0,8402.38061504,-170173463.56848
5200,-7700,0,9291.3938674453,-195528806.44503
5200,-2900,0,5953.9902586417,-74737259.093252
5200,-4300,0,6747.5921631349,-106658102.51339
5200,-7500,0,9126.3355187063,-189633259.38472
5200,-9400,0,10742.439201597,-239615917.54382
5200,-4700,0,7009.27956355,-120879620.19253
5200,-1500,0,5412.0236510939,-40528947.429657
5200,-7000,0,8720.0917426367,-178384250.18705
5200,-600,0,5234.500931321,-13036989.470363
5200,-8500,0,9964.436762808,-214309668.69789
5300,-1500,0,5508.1757415682,-38209456.126808
5300,-4300,0,6824.9542123006,-108662072.00968
5300,-8500,0,10016.985574513,-214309668.69789
5300,-600,0,5333.8541412378,-13036989.470363
5300,-7000,0,8780.0911157003,-181182046.01185
5300,-9400,0,10791.200118615,-235769406.43933
5300,-2900,0,6041.5229867973,-72208252.255596
5300,-6600,0,8464.6323015238,-170173463.56848
5300,-7600,0,9265.5275079188,-195528806.44503
5300,-7700,0,9347.7269964414,-195528806.44503
5300,-7400,0,9102.1975368589,-189633259.38472
5300,-1900,0,5630.2753041037,-47130496.112107
5300,-5700,0,7783.315488916,-145633565.59369
5300,-9300,0,10704.2047813,-235769406.43933
5300,-10000,0,11317.685275709,-251161492.3008
5300,-3400,0,6296.8245965725,-86324726.467624
5300,-5600,0,7710.3826104805,-140225369.1428
5300,-8100,0,9679.8760322641,-207931429.85836
5300,-700,0,5346.0265618495,-20383644.349267
5300,-4200,0,6762.3960250787,-106658102.51339
5300,-3000,0,6090.155991434,-72208252.255596
5300,-2600,0,5903.3888572582,-67605718.892182
5300,-7900,0,9513.1487952202,-198461254.84625
5300,-5800,0,7856.8441501661,-148730357.83938
5300,-200,0,5303.7722424704,-5126332.573068
5300,-9200,0,10617.438485812,-235769406.43933
5300,-8000,0,9596.3534741067,-207931429.85836
5300,-800,0,5360.037313303,-20383644.349267
5300,-6500,0,8386.8945385047,-164695565.26685
5300,-4100,0,6700.7462271004,-106658102.51339
5300,-4800,0,7150.5244562899,-120879620.19253
5300,-9800,0,11141.364368873,-251161492.3008
5300,-5100,0,7355.2702193733,-130745279.08616
5300,-2100,0,5700.8771254957,-51883724.589871
5300,-4400,0,6888.3960397178,-113423820.08552
5300,-5900,0,7930.9520235593,-148730357.83938
5300,-500,0,5323.5326616825,-10250408.621606
5300,-1400,0,5481.7880294663,-34066813.348234
5300,0,0,5300,-2640248.6088521
5300,-7500,0,9183.6811791351,-189633259.38472
5300,-9500,0,10878.419002778,-235769406.43933
5300,-9100,0,10530.906893521,-235769406.43933
5300,-8600,0,10101.98000394,-214309668.69789
5300,-6900,0,8700.5746936625,-181182046.01185
5300,-2300,0,5777.5427302617,-58824146.960564
5300,-2000,0,5664.8036153074,-51883724.589871
5300,-900,0,5375.8720222862,-25205805.865954
5300,-4000,0,6640.0301204136,-99745742.291108
5300,-1800,0,5597.3207876626,-47130496.112107
5300,-5500,0,7638.0625815713,-140225369.1428
5300,-3500,0,6351.3778032802,-86324726.467624
5300,-2800,0,5994.1638282583,-72208252.255596
5300,-2400,0,5818.0752831155,-61012371.840426
5300,-5300,0,7495.3318805774,-134833121.24619
5300,-6000,0,8005.6230238502,-153878619.6179
5300,-7300,0,9021.0864090751,-186703559.64122
5300,-9900,0,11229.425630904,-251161492.3008
5300,-2200,0,5738.4666941614,-54378489.106955
5300,-100,0,5300.9433122794,-2640248.6088521
5300,-9000,0,10444.615837837,-228191443.01857
5300,-8200,0,9763.7083119069,-207931429.85836
5300,-3900,0,6580.2735505448,-99745742.291108
5300,-1000,0,5393.5146240647,-25205805.865954
5300,-3100,0,6140.0325732035,-81601725.686395
5300,-7800,0,9430.2704096966,-195528806.44503
5300,-6100,0,8080.8415403348,-153878619.6179
5300,-7200,0,8940.3579346691,-181182046.01185
5300,-7100,0,8860.0225733347,-181182046.01185
5300,-4500,0,6952.6973183075,-115984655.79968
5300,-8900,0,10358.571330063,-228191443.01857
5300,-400,0,5315.0729063673,-10250408.621606
5300,-9600,0,10965.856099731,-247384186.58341
5300,-3800,0,6521.5028942721,-95410602.012274
5300,-6400,0,8309.6329642169,-164695565.26685
5300,-6800,0,8621.4847909162,-170173463.56848
5300,-1100,0,5412.9474410897,-25205805.865954
5300,-1700,0,5565.9680200303,-44976585.38749
5300,-8300,0,9847.8424032881,-214309668.69789
5300,-2700,0,5948.1089431852,-67605718.892182
5300,-5000,0,7286.2884927787,-128788604.86378
5300,-9700,0,11053.506231056,-251161492.3008
5300,-6200,0,8156.5924257621,-156295074.94501
5300,-3300,0,6243.3965115152,-86324726.467624
5300,-5400,0,7566.3729752108,-138863408.54098
5300,-8800,0,10272.779565434,-228191443.01857
5300,-3200,0,6191.1226768656,-81601725.686395
5300,-3700,0,6463.7450444769,-95410602.012274
5300,-300,0,5308.4837759948,-10250408.621606
5300,-6700,0,8542.8332536694,-170173463.56848
5300,-1200,0,5434.1512676774,-32161687.286857
5300,-6300,0,8232.8609851011,-161879348.30676
5300,-2500,0,5860.0341295934,-65349447.744208
5300,-1300,0,5457.1054598569,-34066813.348234
5300,-1600,0,5536.2442142666,-38209456.126808
5300,-8700,0,10187.246929372,-228191443.01857
5300,-3600,0,6407.0273918565,-93215978.884859
5300,-4900,0,7218.0329730474,-123384726.39206
5300,-4700,0,7083.7842993699,-120879620.19253
5300,-4600,0,7017.8344238091,-115984655.79968
5300,-5200,0,7424.9579123386,-130745279.08616
5300,-8400,0,9932.2706366671,-214309668.69789
5400,-5200,0,7496.6659255965,-128788604.86378
5400,-4300,0,6902.8979421689,-108662072.00968
5400,-4700,0,7158.9105316382,-123384726.39206
5400,-1500,0,5604.4625076808,-38209456.126808
5400,-4900,0,7291.7761896537,-123384726.39206
5400,-3600,0,6489.9922958352,-93775805.426943
5400,-600,0,5433.2310828825,-12735131.815574
5400,-8500,0,10070.253224224,-217686687.4927
5400,-7000,0,8840.8144421201,-178791084.96482
5400,-9400,0,10840.664186294,-239808031.36575
5400,-8400,0,9985.9901862559,-214309668.69789
5400,-1300,0,5554.2776307995,-34066813.348234
5400,-2500,0,5950.6302187247,-65349447.744208
5400,-2900,0,6129.4371682888,-74345571.213308
5400,-7600,0,9323.0896166453,-195528806.44503
5400,-8700,0,10239.628899526,-224818515.72463
5400,-7700,0,9404.7860156412,-198461254.84625
5400,-1900,0,5724.5087125447,-47130496.112107
5400,-7400,0,9160.785992479,-186703559.64122
5400,-10000,0,11364.85811614,-251161492.3008
5400,-5700,0,7851.7513969814,-145633565.59369
5400,-6300,0,8297.5900115636,-161879348.30676
5400,-9300,0,10754.068997361,-235769406.43933
5400,-1600,0,5632.0511361315,-39952089.966348
5400,-5600,0,7779.4601355107,-140225369.1428
5400,-3400,0,6381.2224534175,-86324726.467624
5400,-9900,0,11276.967677528,-251161492.3008
5400,-1200,0,5531.7266743757,-31809176.533907
5400,-8100,0,9734.9884437528,-204698385.31297
5400,-700,0,5445.1813560248,-17748528.961281
5400,-300,0,5408.326913196,-10250408.621606
5400,-6700,0,8605.2309672664,-173320119.07859
5400,-4200,0,6841.0525505948,-108662072.00968
5400,-3000,0,6177.3780845922,-74345571.213308
5400,-7900,0,9569.2214939356,-198461254.84625
5400,-2600,0,5993.3296255087,-65349447.744208
5400,-3200,0,6276.9419305901,-81601725.686395
5400,-200,0,5403.7024344425,-5126332.573068
5400,-3700,0,6545.9911396213,-93775805.426943
5400,-5800,0,7924.6451024636,-145633565.59369
5400,-9200,0,10667.708282476,-235769406.43933
5400,-8000,0,9651.9428096109,-204698385.31297
5400,-6500,0,8450.4437753292,-161879348.30676
5400,-8800,0,10324.727599312,-224818515.72463
5400,-800,0,5458.9376255825,-20383644.349267
5400,-4100,0,6780.1179930736,-105744382.83836
5400,-6600,0,8527.6022421311,-170173463.56848
5400,-4800,0,7224.9567472754,-123384726.39206
5400,-9800,0,11189.280584559,-247384186.58341
5400,-4400,0,6965.6299069072,-113423820.08552
5400,-6200,0,8221.9219164378,-156295074.94501
5400,-5100,0,7427.651041884,-128788604.86378
5400,-5900,0,7998.1247802219,-148730357.83938
5400,-500,0,5423.0987451825,-12735131.815574
5400,-5400,0,7636.7532368147,-140225369.1428
5400,-1400,0,5578.5302723925,-34066813.348234
5400,0,0,5400,-2577935.1376349
5400,-3300,0,6328.5069329187,-86324726.467624
5400,-6900,0,8761.8491199061,-173320119.07859
5400,-8300,0,9902.0199959402,-214309668.69789
5400,-9700,0,11101.801655587,-247384186.58341
5400,-7500,0,9241.7530804496,-189633259.38472
5400,-9500,0,10927.488274988,-239808031.36575
5400,-2700,0,6037.3835392494,-67605718.892182
5400,-2200,0,5830.9518948453,-54107558.701959
5400,-9100,0,10581.587782559,-228191443.01857
5400,-8600,0,10154.801819829,-217686687.4927
5400,-2300,0,5869.4122363317,-61012371.840426
5400,-1800,0,5692.0997883031,-47130496.112107
5400,-1100,0,5510.8982933819,-27363025.439609
5400,-900,0,5474.4862772684,-25205805.865954
5400,-1700,0,5661.2719418873,-44432211.352173
5400,-4000,0,6720.1190465646,-101399528.79229
5400,-5000,0,7359.3477971896,-128788604.86378
5400,-2000,0,5758.4720195552,-51883724.589871
5400,-5500,0,7707.7882690173,-140225369.1428
5400,-6400,0,8373.7685661833,-161879348.30676
5400,-3800,0,6603.0296076877,-95410602.012274
5400,-4600,0,7093.6591403873,-113423820.08552
5400,-7300,0,9080.1982357215,-186703559.64122
5400,-2400,0,5909.3146810777,-61012371.840426
5400,-9600,0,11014.535850411,-247384186.58341
5400,-2800,0,6082.7625302982,-72208252.255596
5400,-6800,0,8683.317338437,-173320119.07859
5400,-5300,0,7566.3729752108,-136848644.61563
5400,-6000,0,8072.1744282442,-156295074.94501
5400,-3500,0,6435.0602172785,-89262339.456939
5400,-9000,0,10495.713410722,-228191443.01857
5400,-100,0,5400.9258465563,-5126332.573068
5400,-3900,0,6661.0809933524,-99745742.291108
5400,-400,0,5414.7945482724,-10250408.621606
5400,-8200,0,9818.3501669069,-207931429.85836
5400,-2100,0,5793.9623747484,-51883724.589871
5400,-1000,0,5491.8120870984,-25205805.865954
5400,-7800,0,9486.8329805051,-198461254.84625
5400,-7100,0,8920.2017914395,-181182046.01185
5400,-3100,0,6226.5560304232,-79170823.665623
5400,-8900,0,10410.091258005,-228191443.01857
5400,-6100,0,8146.7785044151,-156295074.94501
5400,-7200,0,9000,-181182046.01185
5400,-4500,0,7029.224708316,-113423820.08552
5500,-2400,0,6000.833275471,-58793641.867142
5500,-7200,0,9060.3531939986,-178791084.96482
5500,-4300,0,6981.4038702828,-108662072.00968
5500,-5200,0,7569.0157880665,-131326975.85696
5500,-4700,0,7234.6388990744,-120622208.93416
5500,-6100,0,8213.4036793524,-156295074.94501
5500,-8900,0,10462.31331972,-224818515.72463
5500,-600,0,5532.6304774492,-17748528.961281
5500,-3100,0,6313.4776470658,-79170823.665623
5500,-3600,0,6573.4313718179,-89262339.456939
5500,-7000,0,8902.2469073824,-178791084.96482
5500,-7800,0,9544.1081301502,-198461254.84625
5500,-7100,0,8981.0912477271,-178791084.96482
5500,-2800,0,6171.7096496838,-71966022.809995
5500,-2100,0,5887.274411814,-54107558.701959
5500,-8500,0,10124.228365658,-217686687.4927
5500,-10000,0,11412.712210513,-251161492.3008
5500,-1500,0,5700.8771254957,-39952089.966348
5500,-1000,0,5590.1699437495,-27363025.439609
5500,-9400,0,10890.821823903,-239808031.36575
5500,-2900,0,6217.7166226839,-74345571.213308
5500,-8200,0,9873.7024463977,-204698385.31297
5500,-400,0,5514.5262715849,-12735131.815574
5500,-2500,0,6041.5229867973,-65349447.744208
5500,-8700,0,10292.715870945,-224818515.72463
5500,-3900,0,6742.403132415,-101399528.79229
5500,-7700,0,9462.5577937469,-198461254.84625
5500,-8600,0,10208.329931972,-217686687.4927
5500,-1900,0,5818.9346103905,-44432211.352173
5500,-100,0,5500.90901579,-2577935.1376349
5500,-7600,0,9381.3645062965,-198461254.84625
5500,-7400,0,9220.0867674876,-187373343.28666
5500,-6300,0,8363.013810822,-161879348.30676
5500,-9000,0,10547.511554864,-224818515.72463
5500,-5700,0,7920.8585393251,-145633565.59369
5500,-3500,0,6519.2024052026,-89262339.456939
5500,-5000,0,7433.0343736593,-128788604.86378
5500,-2000,0,5852.3499553598,-54107558.701959
5500,-9300,0,10804.628637764,-239808031.36575
5500,-5300,0,7638.0625815713,-136848644.61563
5500,-200,0,5503.6351623268,-2577935.1376349
5500,-6000,0,8139.4102980499,-153305235.75998
5500,-9900,0,11325.193155086,-247384186.58341
5500,-6800,0,8745.8561616345,-173320119.07859
5500,-6400,0,8438.6017799159,-161879348.30676
5500,-9600,0,11063.905277975,-247384186.58341
5500,-5600,0,7849.2037812762,-145633565.59369
5500,-7300,0,9140.0218818119,-187373343.28666
5500,-1600,0,5728.0013966479,-39952089.966348
5500,-1200,0,5629.387178015,-31809176.533907
5500,0,0,5500,-2577935.1376349
5500,-3400,0,6466.0652641309,-89262339.456939
5500,-300,0,5508.1757415682,-10250408.621606
5500,-3800,0,6685.0579653433,-97604142.992418
5500,-8100,0,9790.8120194395,-204698385.31297
5500,-5500,0,7778.174593052,-140225369.1428
5500,-700,0,5544.3665102516,-17748528.961281
5500,-4200,0,6920.2601107184,-105744382.83836
5500,-900,0,5573.1499172371,-24853867.13333
5500,-6700,0,8668.3331731077,-170644673.51917
5500,-4600,0,7170.0767080973,-115562699.15483
5500,-7900,0,9626.0064408871,-198461254.84625
5500,-1700,0,5756.7351858497,-44432211.352173
5500,-4000,0,6800.7352543677,-101399528.79229
5500,-3200,0,6363.1753079732,-79170823.665623
5500,-3300,0,6414.0470843298,-86881047.680686
5500,-2600,0,6083.5844697021,-67565905.049763
5500,-1100,0,5608.9214649521,-27363025.439609
5500,-1800,0,5787.0545184921,-44432211.352173
5500,-3000,0,6264.9820430708,-74345571.213308
5500,-8400,0,10040.418317979,-217686687.4927
5500,-3700,0,6628.7253676706,-93775805.426943
5500,-2300,0,5961.5434243156,-58793641.867142
5500,-5800,0,7993.122043357,-147792738.51333
5500,-9200,0,10718.675291285,-239808031.36575
5500,-4900,0,7366.1387442812,-123384726.39206
5500,-7500,0,9300.5376188691,-187373343.28666
5500,-8000,0,9708.2439194738,-204698385.31297
5500,-9100,0,10632.967600816,-228191443.01857
5500,-6500,0,8514.6931829632,-164684260.71565
5500,-9700,0,11150.784725749,-247384186.58341
5500,-1300,0,5651.5484603779,-31809176.533907
5500,-9500,0,10977.24920005,-239808031.36575
5500,-2700,0,6126.9894728162,-67565905.049763
5500,-8800,0,10377.379245262,-224818515.72463
5500,-8300,0,9956.9071503153,-217686687.4927
5500,-6900,0,8823.8313673823,-173320119.07859
5500,-800,0,5557.8772926361,-17748528.961281
5500,-9800,0,11237.882362794,-247384186.58341
5500,-4100,0,6860.029154457,-105744382.83836
5500,-5100,0,7500.6666370397,-131326975.85696
5500,-5400,0,7707.7882690173,-136848644.61563
5500,-4800,0,7300,-123384726.39206
5500,-500,0,5522.6805085936,-12735131.815574
5500,-6200,0,8287.9430499974,-156295074.94501
5500,-2200,0,5923.681287848,-54107558.701959
5500,-6600,0,8591.2746434973,-170644673.51917
5500,-5900,0,8065.9779320303,-147792738.51333
5500,-4500,0,7106.3352017759,-115562699.15483
5500,-1400,0,5675.3854494651,-31809176.533907
5500,-4400,0,7043.4366611761,-113423820.08552
5600,-9800,0,11287.160847618,-247384186.58341
5600,-8300,0,10012.49219725,-214237382.44849
5600,-1400,0,5772.3478758647,-33680617.398207
5600,-4500,0,7184.0100222647,-115562699.15483
5600,-6900,0,8886.5066252156,-170644673.51917
5600,-5900,0,8134.4944526381,-147792738.51333
5600,-500,0,5622.2771187482,-12735131.815574
5600,-2200,0,6016.6435825965,-54107558.701959
5600,-1300,0,5748.9129407219,-33680617.398207
5600,-4800,0,7375.6355658343,-120622208.93416
5600,-6200,0,8354.6394296822,-153305235.75998
5600,-8800,0,10430.723848324,-224818515.72463
5600,-5100,0,7574.2986473996,-131326975.85696
5600,-4100,0,6940.4610797843,-105744382.83836
5600,-800,0,5656.8542494924,-20042678.187245
5600,-5400,0,7779.4601355107,-136848644.61563
5600,-2700,0,6216.9124169478,-67565905.049763
5600,-9500,0,11027.692415007,-239808031.36575
5600,-9100,0,10685.036265732,-228801167.19922
5600,-8400,0,10095.543571299,-214237382.44849
5600,-9700,0,11200.446419675,-247384186.58341
5600,-8000,0,9765.244492587,-204698385.31297
5600,-6500,0,8579.6270315207,-164684260.71565
5600,-3700,0,6711.9296778199,-97604142.992418
5600,-4900,0,7441.1020689143,-120622208.93416
5600,-9200,0,10770.329614269,-236214735.40757
5600,-5800,0,8062.2577482985,-147792738.51333
5600,-1100,0,5707.0132293521,-27363025.439609
5600,-2300,0,6053.9243470661,-58793641.867142
5600,-7500,0,9360.021367497,-190727271.91589
5600,-3000,0,6352.9520697074,-74345571.213308
5600,-1800,0,5882.1764679411,-46659485.009295
5600,-2600,0,6174.1396161733,-67565905.049763
5600,-6600,0,8655.634003353,-170644673.51917
5600,-4000,0,6881.8602136341,-101399528.79229
5600,-7400,0,9280.0862064961,-187373343.28666
5600,-3200,0,6449.8061986388,-81520597.343568
5600,-6700,0,8732.1245982865,-170644673.51917
5600,-4600,0,7247.0683727974,-115562699.15483
5600,-10000,0,11461.239025516,-251200365.35828
5600,-8100,0,9847.334664771,-207625871.9963
5600,-7900,0,9683.491106001,-198461254.84625
5600,-1700,0,5852.3499553598,-44432211.352173
5600,-900,0,5671.8603649949,-24853867.13333
5600,-4200,0,7000,-105744382.83836
5600,-700,0,5643.580423809,-20042678.187245
5600,-5500,0,7849.2037812762,-136848644.61563
5600,-1600,0,5824.0879114244,-39952089.966348
5600,-3400,0,6551.3357416637,-86881047.680686
5600,-3300,0,6500,-86881047.680686
5600,-2400,0,6092.6184846911,-61515216.656958
5600,-6100,0,8280.7004534641,-153305235.75998
5600,-4400,0,7121.7975259059,-115562699.15483
5600,-1200,0,5727.1284253105,-31809176.533907
5600,-7300,0,9200.5434622092,-187373343.28666
5600,-9600,0,11113.95519156,-247384186.58341
5600,-5600,0,7919.5959492893,-147792738.51333
5600,-3800,0,6767.5697262755,-97604142.992418
5600,-9900,0,11374.093370463,-251200365.35828
5600,-6000,0,8207.3138114733,-153305235.75998
5600,-200,0,5603.5702904488,-5111380.8688818
5600,-300,0,5608.029957124,-10166405.618921
5600,-5300,0,7710.3826104805,-136848644.61563
5600,-9300,0,10855.873986004,-239808031.36575
5600,-5700,0,7990.6195003892,-147792738.51333
5600,-9000,0,10600,-228801167.19922
5600,-6800,0,8809.0862182181,-170644673.51917
5600,-8500,0,10178.899744078,-217686687.4927
5600,-6300,0,8429.1162051546,-164684260.71565
5600,-7600,0,9440.3389769648,-195916583.03035
5600,-7700,0,9521.0293561148,-195916583.03035
5600,-3500,0,6603.7867924396,-86881047.680686
5600,-2100,0,5980.8026217223,-54107558.701959
5600,-7100,0,9042.6765949026,-182267784.95731
5600,-8700,0,10346.496991736,-224818515.72463
5600,-100,0,5600.8927859762,-2577935.1376349
5600,-3900,0,6824.2215673291,-97604142.992418
5600,-6400,0,8504.1166501877,-164684260.71565
5600,-2500,0,6132.6992425848,-65954150.988547
5600,-1900,0,5913.543776789,-46659485.009295
5600,-1500,0,5797.4132162543,-37689982.645136
5600,-8600,0,10262.553288534,-217686687.4927
5600,-400,0,5614.2675390473,-10166405.618921
5600,-9400,0,10941.663493272,-239808031.36575
5600,-5000,0,7507.3297516494,-131326975.85696
5600,-4700,0,7310.9506905737,-120622208.93416
5600,-1000,0,5688.5850613312,-24853867.13333
5600,-8200,0,9929.7532698451,-207625871.9963
5600,-2000,0,5946.4274989274,-51585646.398927
5600,-5200,0,7641.9892698171,-131326975.85696
5600,-7800,0,9602.0831073262,-198461254.84625
5600,-7000,0,8964.373932406,-182267784.95731
5600,-2900,0,6306.346010171,-71966022.809995
5600,-3600,0,6657.3267908373,-89262339.456939
5600,-7200,0,9121.4034007931,-182267784.95731
5600,-2800,0,6260.9903369994,-71966022.809995
5600,-600,0,5632.0511361315,-17748528.961281
5600,0,0,5600,-2577935.1376349
5600,-3100,0,6400.7812023221,-81520597.343568
5600,-8900,0,10515.227054134,-224818515.72463
5600,-4300,0,7060.4532432415,-107066119.86952
5700,-8500,0,10234.256201601,-214237382.44849
5700,-8800,0,10484.750831565,-228801167.19922
5700,-8300,0,10068.763578514,-214237382.44849
5700,-600,0,5731.4919523628,-17528284.420982
5700,-9400,0,10993.179703798,-236214735.40757
5700,-4100,0,7021.3958726168,-107066119.86952
5700,-9800,0,11337.107214806,-251200365.35828
5700,-800,0,5755.8665724633,-20042678.187245
5700,-3700,0,6795.5868032128,-97988953.787386
5700,-1200,0,5824.9463516843,-31434931.950535
5700,-1700,0,5948.1089431852,-46659485.009295
5700,-3200,0,6536.8187981617,-81520597.343568
5700,-2700,0,6307.1388124886,-65954150.988547
5700,-6300,0,8495.8813551038,-161681081.38784
5700,-9200,0,10822.661410208,-236214735.40757
5700,-2200,0,6109.8281481561,-54134378.973193
5700,-2900,0,6395.3107821278,-73595870.769538
5700,-6700,0,8796.5902484997,-170644673.51917
5700,-6200,0,8421.9950130596,-155885306.62744
5700,-6800,0,8872.9927307532,-173637597.71653
5700,-4500,0,7262.2310621461,-112114629.19338
5700,-5400,0,7851.7513969814,-139189646.94271
5700,-1600,0,5920.3040462463,-39387169.975659
5700,-5900,0,8203.6577207975,-153305235.75998
5700,-7700,0,9580.187889598,-195916583.03035
5700,-4700,0,7387.8278269056,-120622208.93416
5700,-2100,0,6074.537019395,-51585646.398927
5700,-5200,0,7715.5686763841,-131326975.85696
5700,-7100,0,9104.943712072,-179784887.90555
5700,-7000,0,9027.181176868,-179784887.90555
5700,-8700,0,10400.961494016,-224818515.72463
5700,-8400,0,10151.354589413,-214237382.44849
5700,-2000,0,6040.6953242156,-51585646.398927
5700,-2500,0,6224.1465278382,-61515216.656958
5700,-500,0,5721.887800368,-10166405.618921
5700,-3600,0,6741.6615162733,-89475997.302142
5700,-1900,0,6008.3275543199,-46659485.009295
5700,-9500,0,11078.808600206,-239808031.36575
5700,-1100,0,5805.17010948,-27042010.583054
5700,-3300,0,6586.34952003,-86881047.680686
5700,-300,0,5707.8892771321,-10166405.618921
5700,-9100,0,10737.783756437,-228801167.19922
5700,-9900,0,11423.659658796,-251200365.35828
5700,-1300,0,5846.3663928974,-33680617.398207
5700,-5800,0,8132.0354155648,-147792738.51333
5700,-3100,0,6488.4512790033,-78322475.086342
5700,-9600,0,11164.676439557,-247384186.58341
5700,-4000,0,6963.4761434215,-97988953.787386
5700,-3800,0,6850.5474233816,-97988953.787386
5700,-2800,0,6350.590523723,-73595870.769538
5700,-5500,0,7920.8585393251,-139189646.94271
5700,0,0,5700,-2577935.1376349
5700,-8100,0,9904.5444115315,-207625871.9963
5700,-900,0,5770.6152185014,-24853867.13333
5700,-400,0,5714.0178508647,-10166405.618921
5700,-6600,0,8720.6651122492,-170644673.51917
5700,-8900,0,10568.822072492,-228801167.19922
5700,-5700,0,8061.0173055266,-144723490.61006
5700,-8200,0,9986.4908751773,-207625871.9963
5700,-7500,0,9420.1910808645,-190727271.91589
5700,-9700,0,11250.777750893,-251200365.35828
5700,-6400,0,8570.2975444263,-164684260.71565
5700,-200,0,5703.5076926397,-5111380.8688818
5700,-100,0,5700.8771254957,-5111380.8688818
5700,-3000,0,6441.2731660752,-78322475.086342
5700,-2400,0,6184.6584384265,-61515216.656958
5700,-7200,0,9183.1367190084,-182267784.95731
5700,-1800,0,5977.4576535514,-46659485.009295
5700,-6100,0,8348.6525858967,-155885306.62744
5700,-7300,0,9261.7492948147,-187373343.28666
5700,-8600,0,10317.460927961,-214237382.44849
5700,-5000,0,7582.2160349069,-128244738.27628
5700,-4400,0,7200.6944109579,-112114629.19338
5700,-3500,0,6688.7966032763,-86881047.680686
5700,-1500,0,5894.0648113165,-37689982.645136
5700,-8000,0,9822.9323524088,-207625871.9963
5700,-2600,0,6264.9820430708,-65954150.988547
5700,-5300,0,7783.315488916,-136848644.61563
5700,-4600,0,7324.616030892,-115562699.15483
5700,-7600,0,9500,-195916583.03035
5700,-7800,0,9660.7453128628,-195916583.03035
5700,-7400,0,9340.7708461347,-190727271.91589
5700,-4900,0,7516.6481891865,-122946673.94308
5700,-6000,0,8275.8685344802,-153305235.75998
5700,-9300,0,10907.795377619,-236214735.40757
5700,-10000,0,11510.430052783,-251200365.35828
5700,-1400,0,5869.4122363317,-37689982.645136
5700,-3400,0,6637.017402418,-86881047.680686
5700,-5100,0,7648.5292703892,-128244738.27628
5700,-1000,0,5787.0545184921,-24853867.13333
5700,-7900,0,9741.663102366,-195916583.03035
5700,-9000,0,10653.168542739,-228801167.19922
5700,-4800,0,7451.8454090245,-122946673.94308
5700,-5600,0,7990.6195003892,-144723490.61006
5700,-4300,0,7140.0280111495,-107066119.86952
5700,-6900,0,8949.8603341058,-173637597.71653
5700,-2300,0,6146.5437442517,-61515216.656958
5700,-3900,0,6906.5186599328,-97988953.787386
5700,-6500,0,8645.2298986204,-164684260.71565
5700,-700,0,5742.8216061445,-20042678.187245
5700,-4200,0,7080.2542327236,-107066119.86952
5800,-700,0,5842.0886675914,-17528284.420982
5800,-6500,0,8711.4866699089,-161681081.38784
5800,-5000,0,7657.6758876307,-128244738.27628
5800,-3900,0,6989.2775020026,-97988953.787386
5800,-2300,0,6239.3909959226,-59379676.944609
5800,-9700,0,11301.769772916,-251200365.35828
5800,-6900,0,9013.87818866,-173637597.71653
5800,-4300,0,7220.1108024739,-112114629.19338
5800,-4800,0,7528.6120898875,-122946673.94308
5800,-9000,0,10707.007051459,-228801167.19922
5800,-5600,0,8062.2577482985,-144723490.61006
5800,-7900,0,9800.5101908013,-198977417.46074
5800,-2400,0,6276.9419305901,-59379676.944609
5800,-1000,0,5885.5755878249,-27042010.583054
5800,-5100,0,7723.3412458599,-128244738.27628
5800,-8500,0,10290.286682109,-214237382.44849
5800,-3400,0,6723.0945255886,-89475997.302142
5800,-1400,0,5966.5735560705,-37689982.645136
5800,-7600,0,9560.3347221737,-195916583.03035
5800,-4900,0,7592.7597090913,-122946673.94308
5800,-10000,0,11560.276813295,-251200365.35828
5800,-6000,0,8345.05841801,-155885306.62744
5800,-9300,0,10960.38320498,-236214735.40757
5800,-4600,0,7402.7022093287,-114286962.32605
5800,-7400,0,9402.1274188345,-190727271.91589
5800,-7800,0,9720.0823041783,-198977417.46074
5800,-5300,0,7856.8441501661,-139189646.94271
5800,-2600,0,6356.0994328283,-65954150.988547
5800,-8000,0,9881.2954616285,-204459198.77053
5800,-1500,0,5990.8263203001,-39387169.975659
5800,-4400,0,7280.1098892805,-112114629.19338
5800,-3500,0,6774.215821776,-89475997.302142
5800,-1800,0,6072.8905802756,-43883216.774131
5800,-8600,0,10373.041983912,-217737886.23494
5800,-7300,0,9323.6259041212,-190727271.91589
5800,-6100,0,8417.2442046076,-155885306.62744
5800,-3000,0,6529.9310869258,-78322475.086342
5800,-7200,0,9245.539465061,-179784887.90555
5800,-100,0,5800.8620049093,-2609970.9959978
5800,-200,0,5803.4472514188,-5111380.8688818
5800,-6400,0,8637.1291526757,-161681081.38784
5800,-8900,0,10623.08806327,-228801167.19922
5800,-5700,0,8132.0354155648,-144723490.61006
5800,-8200,0,10043.903623592,-207625871.9963
5800,-400,0,5813.7767414995,-10166405.618921
5800,-6600,0,8786.3530545955,-173637597.71653
5800,-900,0,5869.4122363317,-24853867.13333
5800,-8100,0,9962.4294225856,-207625871.9963
5800,-3800,0,6933.9743293439,-97988953.787386
5800,-5500,0,7993.122043357,-139189646.94271
5800,-4200,0,7161.0055159873,-107066119.86952
5800,-2800,0,6440.4968752418,-69640125.962646
5800,0,0,5800,-2609970.9959978
5800,-4000,0,7045.5659815234,-103106845.92298
5800,-9600,0,11216.059914248,-247666360.0273
5800,-3100,0,6576.473218983,-78322475.086342
5800,-9500,0,11130.588483993,-240254232.71053
5800,-1300,0,5943.9044406854,-31434931.950535
5800,-5800,0,8202.438661764,-144723490.61006
5800,-9900,0,11473.883387938,-251200365.35828
5800,-9100,0,10791.200118615,-228801167.19922
5800,-3300,0,6673.0802482811,-86881047.680686
5800,-300,0,5807.7534382926,-10166405.618921
5800,-8400,0,10207.84012414,-214237382.44849
5800,-1100,0,5903.3888572582,-27042010.583054
5800,-3600,0,6826.4192663504,-89475997.302142
5800,-2500,0,6315.8530698553,-61515216.656958
5800,-1900,0,6103.2778078669,-46659485.009295
5800,-7000,0,9090.6545418908,-179784887.90555
5800,-7100,0,9167.8787077491,-179784887.90555
5800,-5200,0,7789.7368376602,-130649876.46608
5800,-8700,0,10456.098698846,-225165314.75926
5800,-7700,0,9640.0207468656,-195916583.03035
5800,-4700,0,7465.2528423356,-122946673.94308
5800,-5900,0,8273.4515167492,-152811112.81349
5800,-2100,0,6168.4682053165,-54134378.973193
5800,-500,0,5821.5118311312,-12646794.571268
5800,-5400,0,7924.6451024636,-139189646.94271
5800,-6800,0,8937.5611886017,-173637597.71653
5800,-4500,0,7340.9808608932,-112114629.19338
5800,-1600,0,6016.6435825965,-39387169.975659
5800,-6200,0,8489.9941107165,-155885306.62744
5800,-6700,0,8861.7154095581,-173637597.71653
5800,-2900,0,6484.5971347494,-73595870.769538
5800,-2200,0,6203.2249677083,-54134378.973193
5800,-9200,0,10875.660899458,-236214735.40757
5800,-6300,0,8563.293758829,-161681081.38784
5800,-2000,0,6135.1446600712,-51585646.398927
5800,-3200,0,6624.1980646717,-78322475.086342
5800,-2700,0,6397.6558206893,-69640125.962646
5800,-7500,0,9481.033698917,-190727271.91589
5800,-800,0,5854.9124673218,-17528284.420982
5800,-1700,0,6044.0052945046,-43883216.774131
5800,-1200,0,5922.8371579843,-31434931.950535
5800,-3700,0,6879.6802251267,-94410029.637754
5800,-8800,0,10539.449701004,-228801167.19922
5800,-9400,0,11045.361017187,-236214735.40757
5800,-4100,0,7102.8163428319,-103106845.92298
5800,-9800,0,11387.712676389,-251200365.35828
5800,-600,0,5830.9518948453,-17528284.420982
5800,-8300,0,10125.70985166,-214237382.44849
5900,-9800,0,11438.968484964,-247666360.0273
5900,-4500,0,7420.2425836357,-114286962.32605
5900,-8300,0,10183.319694481,-214237382.44849
5900,-600,0,5930.4300012731,-17528284.420982
5900,-8800,0,10594.810050209,-225165314.75926
5900,-3700,0,6964.1941385921,-94410029.637754
5900,-2700,0,6488.4512790033,-69640125.962646
5900,-1200,0,6020.7972893961,-31434931.950535
5900,-7500,0,9542.5363504678,-188466658.11791
5900,-2900,0,6574.1919655574,-73595870.769538
5900,-1700,0,6140.0325732035,-43883216.774131
5900,-800,0,5953.9902586417,-19839270.189162
5900,-6300,0,8631.338250816,-161681081.38784
5900,-6200,0,8558.6213843118,-155885306.62744
5900,-9400,0,11098.198051936,-240254232.71053
5900,0,0,5900,-2609970.9959978
5900,-5400,0,7998.1247802219,-136076298.49678
5900,-2100,0,6262.5873247405,-54134378.973193
5900,-3200,0,6711.9296778199,-80709791.733432
5900,-8700,0,10511.898020814,-225165314.75926
5900,-7000,0,9154.7801721287,-179784887.90555
5900,-1900,0,6198.3868869247,-46237248.640827
5900,-2500,0,6407.8077374403,-62693432.799973
5900,-7700,0,9700.5154502222,-198977417.46074
5900,-3600,0,6911.584478251,-89475997.302142
5900,-2000,0,6229.767250869,-54134378.973193
5900,-1100,0,6001.6664352495,-27042010.583054
5900,-300,0,5907.6221950968,-5204890.2416857
5900,-9900,0,11524.755962709,-251200365.35828
5900,-9600,0,11268.096556207,-247666360.0273
5900,-4200,0,7242.2372234,-103106845.92298
5900,-3800,0,7017.8344238091,-94410029.637754
5900,-2400,0,6369.4583757177,-59379676.944609
5900,-8100,0,10020.977996184,-204459198.77053
5900,-400,0,5913.543776789,-12646794.571268
5900,-2200,0,6296.8245965725,-54134378.973193
5900,-9200,0,10929.318368499,-236214735.40757
5900,-1300,0,6041.5229867973,-33258061.721552
5900,-6700,0,8927.4856482663,-170457203.91145
5900,-5700,0,8203.6577207975,-147162126.10335
5900,-8900,0,10678.014796768,-225165314.75926
5900,-6400,0,8704.5964869143,-164460675.21036
5900,-7200,0,9308.5981758802,-182651215.97986
5900,-3000,0,6618.9122973492,-78322475.086342
5900,-1600,0,6113.1006862312,-39387169.975659
5900,-8600,0,10429.285689826,-217737886.23494
5900,-6800,0,9002.7773492406,-173637597.71653
5900,-6100,0,8486.4598037108,-155885306.62744
5900,-3500,0,6860.029154457,-89475997.302142
5900,-8000,0,9940.3219263764,-204459198.77053
5900,-5300,0,7930.9520235593,-136076298.49678
5900,-7800,0,9780.0817992489,-198977417.46074
5900,-4600,0,7481.3100457072,-114286962.32605
5900,-9300,0,11013.627921807,-240254232.71053
5900,-4800,0,7605.9187479226,-120048097.30346
5900,-500,0,5921.148537235,-12646794.571268
5900,-1400,0,6063.8271743182,-37210529.742409
5900,-4900,0,7669.4197955256,-122946673.94308
5900,-1000,0,5984.1457201509,-27042010.583054
5900,-5900,0,8343.8600180013,-152811112.81349
5900,-5600,0,8134.4944526381,-144723490.61006
5900,-4300,0,7300.6848993776,-112114629.19338
5900,-9700,0,11353.413583588,-247666360.0273
5900,-6500,0,8778.3825389419,-164460675.21036
5900,-4700,0,7543.2088662584,-120048097.30346
5900,-3900,0,7072.4818840348,-103106845.92298
5900,-5000,0,7733.6925203941,-130649876.46608
5900,-2300,0,6332.456079595,-59379676.944609
5900,-7100,0,9231.4679222754,-179784887.90555
5900,-5200,0,7864.4770964127,-130649876.46608
5900,-10000,0,11610.770861575,-251200365.35828
5900,-6900,0,9078.5461391128,-173637597.71653
5900,-700,0,5941.3803110052,-17528284.420982
5900,-9000,0,10761.50547089,-228801167.19922
5900,-7900,0,9860.0202839548,-198977417.46074
5900,-8500,0,10346.980235798,-217737886.23494
5900,-5100,0,7798.7178433381,-130649876.46608
5900,-3400,0,6809.5521144933,-86496791.694489
5900,-7600,0,9621.330469327,-190727271.91589
5900,-3300,0,6760.1775124622,-86496791.694489
5900,-6000,0,8414.8677945646,-152811112.81349
5900,-7400,0,9464.1428560647,-188466658.11791
5900,-2600,0,6447.4801279259,-68508088.411193
5900,-1500,0,6087.6925020898,-39387169.975659
5900,-4400,0,7360.0271738629,-114286962.32605
5900,-1800,0,6168.4682053165,-43883216.774131
5900,-9100,0,10845.275469069,-228801167.19922
5900,-7300,0,9386.1600242059,-188466658.11791
5900,-5800,0,8273.4515167492,-147162126.10335
5900,-3100,0,6664.8330811807,-78322475.086342
5900,-9500,0,11183.022847155,-240254232.71053
5900,-200,0,5903.3888572582,-2609970.9959978
5900,-100,0,5900.8473967728,-2609970.9959978
5900,-8400,0,10264.989040423,-217737886.23494
5900,-8200,0,10101.98000394,-204459198.77053
5900,-6600,0,8852.6832090615,-170457203.91145
5900,-900,0,5968.2493245507,-24559491.971564
5900,-4100,0,7184.7059786744,-103106845.92298
5900,-5500,0,8065.9779320303,-139189646.94271
5900,-4000,0,7128.1133548787,-103106845.92298
5900,-2800,0,6530.6967469023,-69640125.962646
6000,-2800,0,6621.1781428987,-68508088.411193
6000,-4500,0,7500,-114286962.32605
6000,-9800,0,11490.865937779,-247666360.0273
6000,-7400,0,9526.8042910516,-188466658.11791
6000,-8300,0,10241.581909061,-214014913.87285
6000,-8800,0,10650.821564555,-225165314.75926
6000,-3700,0,7049.1134194308,-96913709.286277
6000,-5500,0,8139.4102980499,-138411636.12653
6000,-2500,0,6500,-62693432.799973
6000,-9600,0,11320.777358468,-247666360.0273
6000,-2700,0,6579.5136598384,-68508088.411193
6000,-4100,0,7267.0489196097,-102304156.98965
6000,-1900,0,6293.6475910238,-46237248.640827
6000,-7500,0,9604.6863561493,-188466658.11791
6000,-1200,0,6118.8234163113,-33258061.721552
6000,-900,0,6067.124524847,-24559491.971564
6000,-2900,0,6664.0828326185,-72049486.344996
6000,-800,0,6053.0983801686,-19839270.189162
6000,-6300,0,8700,-164460675.21036
6000,-6200,0,8627.8618440492,-152811112.81349
6000,-6600,0,8919.6412483911,-170457203.91145
6000,-9400,0,11151.681487561,-240254232.71053
6000,-8200,0,10160.708636704,-207342751.33291
6000,-8400,0,10322.790320451,-217737886.23494
6000,-5400,0,8072.1744282442,-136076298.49678
6000,-100,0,6000.833275471,-2609970.9959978
6000,-2100,0,6356.8860301251,-51565908.100805
6000,-9500,0,11236.102527122,-240254232.71053
6000,-200,0,6003.3324079215,-5204890.2416857
6000,-10000,0,11661.903789691,-251200365.35828
6000,-1700,0,6236.1847310675,-46237248.640827
6000,-7000,0,9219.5444572929,-182651215.97986
6000,-8700,0,10568.348972285,-225165314.75926
6000,-7300,0,9449.3386011932,-188466658.11791
6000,-5800,0,8345.05841801,-147162126.10335
6000,-3200,0,6800,-80709791.733432
6000,-7700,0,9761.6596949494,-196492797.31813
6000,-9100,0,10900,-229652275.36502
6000,-1800,0,6264.1839053463,-46237248.640827
6000,-3600,0,6997.1422738144,-89475997.302142
6000,0,0,6000,-2609970.9959978
6000,-1500,0,6184.6584384265,-37210529.742409
6000,-1100,0,6100,-24559491.971564
6000,-2600,0,6539.1130897087,-68508088.411193
6000,-2000,0,6324.5553203368,-51565908.100805
6000,-300,0,6007.4953183502,-5204890.2416857
6000,-9900,0,11576.268828945,-247666360.0273
6000,-4200,0,7323.9333694402,-105742502.39636
6000,-2400,0,6462.1977685614,-62693432.799973
6000,-3800,0,7102.1123618259,-96913709.286277
6000,-6700,0,8993.886812719,-170457203.91145
6000,-4400,0,7440.4300950953,-114286962.32605
6000,-8100,0,10080.178569847,-204459198.77053
6000,-2200,0,6390.6181234682,-54134378.973193
6000,-400,0,6013.3185513492,-10203249.575576
6000,-9200,0,10983.624174197,-240254232.71053
6000,-4900,0,7746.6121627457,-122522282.05571
6000,-8900,0,10733.592129385,-225165314.75926
6000,-1300,0,6139.2181912683,-33258061.721552
6000,-3300,0,6847.627326308,-86496791.694489
6000,-6000,0,8485.2813742386,-152811112.81349
6000,-5700,0,8275.8685344802,-147162126.10335
6000,-6400,0,8772.6848797845,-164460675.21036
6000,-7200,0,9372.299611088,-182651215.97986
6000,-7800,0,9840.731680114,-198977417.46074
6000,-1600,0,6209.669878504,-39387169.975659
6000,-5100,0,7874.642849044,-130649876.46608
6000,-8600,0,10486.181383135,-217737886.23494
6000,-3400,0,6896.3758598267,-86496791.694489
6000,-6100,0,8556.2842402529,-152811112.81349
6000,-3000,0,6708.2039324994,-80709791.733432
6000,-3900,0,7156.1162651259,-102304156.98965
6000,-5300,0,8005.6230238502,-136076298.49678
6000,-3500,0,6946.2219947249,-86496791.694489
6000,-8500,0,10404.326023342,-217737886.23494
6000,-8000,0,10000,-204459198.77053
6000,-4000,0,7211.102550928,-102304156.98965
6000,-4800,0,7683.7490849194,-120048097.30346
6000,-9300,0,11067.520047418,-240254232.71053
6000,-7900,0,9920.1814499534,-204459198.77053
6000,-5200,0,7939.7732965117,-130649876.46608
6000,-4600,0,7560.4232685743,-114286962.32605
6000,-500,0,6020.7972893961,-10203249.575576
6000,-6800,0,9068.6272390037,-170457203.91145
6000,-1400,0,6161.1687202997,-37210529.742409
6000,-1000,0,6082.7625302982,-24559491.971564
6000,-5600,0,8207.3138114733,-143962642.35657
6000,-9000,0,10816.653826392,-225165314.75926
6000,-3100,0,6753.5176019612,-80709791.733432
6000,-700,0,6040.6953242156,-19839270.189162
6000,-5900,0,8414.8677945646,-152811112.81349
6000,-7600,0,9682.9747495282,-191169631.43008
6000,-6900,0,9143.8503924769,-170457203.91145
6000,-7100,0,9295.6979296877,-182651215.97986
6000,-2300,0,6425.7295305669,-59379676.944609
6000,-4300,0,7381.7342135842,-111394550.43813
6000,-9700,0,11405.700329221,-247666360.0273
6000,-5000,0,7810.2496759067,-127824062.95823
6000,-4700,0,7621.6796049165,-120048097.30346
6000,-6500,0,8845.9030064771,-164460675.21036
6000,-600,0,6029.9253726725,-17528284.420982
6100,-6500,0,8914.0338792266,-164460675.21036
6100,-3800,0,7186.7934435324,-96913709.286277
6100,-6900,0,9209.7774131626,-173320308.2079
6100,-4500,0,7580.2374632989,-111394550.43813
6100,-3500,0,7032.7803890069,-89206631.692161
6100,-7100,0,9360.5555390692,-182651215.97986
6100,-8200,0,10220.078277587,-207342751.33291
6100,-4300,0,7463.2432628181,-111394550.43813
6100,-9800,0,11543.396380615,-247666360.0273
6100,-8800,0,10707.474025184,-225165314.75926
6100,-2300,0,6519.2024052026,-60133854.012947
6100,-5500,0,8213.4036793524,-138411636.12653
6100,-5900,0,8486.4598037108,-152811112.81349
6100,-600,0,6129.4371682888,-17589116.092941
6100,-7600,0,9745.2552557642,-191169631.43008
6100,-3100,0,6842.5141578224,-77844840.040474
6100,-9000,0,10872.442227945,-229652275.36502
6100,-2500,0,6592.4198895398,-62693432.799973
6100,-2800,0,6711.9296778199,-72049486.344996
6100,-1000,0,6181.4237842102,-27052710.834303
6100,-9600,0,11374.093370463,-247666360.0273
6100,-2900,0,6754.2579163073,-72049486.344996
6100,-6800,0,9135.0971532874,-173320308.2079
6100,-10000,0,11713.66723106,-251443732.61188
6100,-2700,0,6670.8320320632,-68508088.411193
6100,-7500,0,9667.4712308856,-191169631.43008
6100,-1400,0,6258.5940913275,-37210529.742409
6100,-9700,0,11458.621208505,-247666360.0273
6100,-1900,0,6389.0531379853,-46237248.640827
6100,-5600,0,8280.7004534641,-143962642.35657
6100,-4100,0,7349.8299300052,-105742502.39636
6100,-700,0,6140.0325732035,-19839270.189162
6100,-500,0,6120.4574992397,-10203249.575576
6100,-1200,0,6216.9124169478,-31370911.350695
6100,-4600,0,7640.0261779656,-120048097.30346
6100,-900,0,6166.0360037872,-24559491.971564
6100,-6300,0,8769.2645073575,-161259749.38749
6100,-7900,0,9980.9819156233,-204459198.77053
6100,-9300,0,11122.050170719,-237330402.34285
6100,-6200,0,8697.7008456258,-155405777.2411
6100,-4700,0,7700.6493232714,-122522282.05571
6100,-6600,0,8987.2131386765,-170457203.91145
6100,-4800,0,7762.08734813,-122522282.05571
6100,-800,0,6152.2353661088,-19839270.189162
6100,-8400,0,10381.233067415,-214014913.87285
6100,-9400,0,11205.802068571,-240254232.71053
6100,-8500,0,10462.31331972,-214014913.87285
6100,-4000,0,7294.5184899348,-102304156.98965
6100,-5200,0,8015.6097709407,-130649876.46608
6100,-7000,0,9284.9340331528,-179368289.47951
6100,-8000,0,10060.318086423,-207342751.33291
6100,-3700,0,7134.4235926948,-94685415.06309
6100,-7400,0,9590.0990610108,-191169631.43008
6100,-100,0,6100.8196170679,-5204890.2416857
6100,-5300,0,8080.8415403348,-138411636.12653
6100,-2100,0,6451.3564465157,-51565908.100805
6100,-9500,0,11289.818421923,-240254232.71053
6100,-3000,0,6797.7937597429,-77844840.040474
6100,-5400,0,8146.7785044151,-138411636.12653
6100,-8700,0,10625.441167312,-225165314.75926
6100,-3400,0,6983.5521047673,-86496791.694489
6100,-6100,0,8626.7027304759,-155405777.2411
6100,-7300,0,9513.1487952202,-188466658.11791
6100,-3200,0,6888.3960397178,-80709791.733432
6100,-8300,0,10300.485425454,-214014913.87285
6100,-8600,0,10543.718509141,-217737886.23494
6100,-2600,0,6630.9878600402,-68508088.411193
6100,-3600,0,7083.0784267859,-89206631.692161
6100,-5100,0,7951.1005527537,-127824062.95823
6100,-9100,0,10955.363982999,-229652275.36502
6100,-1600,0,6306.346010171,-43028332.636855
6100,-5800,0,8417.2442046076,-147162126.10335
6100,-7800,0,9902.0199959402,-196492797.31813
6100,-1700,0,6332.456079595,-43028332.636855
6100,-7700,0,9823.4413521942,-196492797.31813
6100,-7200,0,9436.6307546709,-182651215.97986
6100,-1500,0,6281.7195098158,-38492039.798769
6100,-6400,0,8841.3799827855,-164460675.21036
6100,-1100,0,6198.3868869247,-27052710.834303
6100,-9900,0,11628.413477341,-251443732.61188
6100,-300,0,6107.372593841,-5204890.2416857
6100,-5700,0,8348.6525858967,-143962642.35657
6100,-6000,0,8556.2842402529,-152811112.81349
6100,-200,0,6103.2778078669,-5204890.2416857
6100,-2000,0,6419.5015382816,-51565908.100805
6100,-1300,0,6236.9864518051,-33258061.721552
6100,0,0,6100,-2609970.9959978
6100,-2400,0,6555.150646629,-62693432.799973
6100,-8900,0,10789.810007595,-225165314.75926
6100,-1800,0,6360.0314464631,-46237248.640827
6100,-4200,0,7406.0785845142,-105742502.39636
6100,-9200,0,11038.568747804,-237330402.34285
6100,-8100,0,10140.019723847,-207342751.33291
6100,-3300,0,6935.4163537599,-86496791.694489
6100,-6700,0,9060.9050320594,-170457203.91145
6100,-400,0,6113.1006862312,-10203249.575576
6100,-4900,0,7824.3210568074,-122522282.05571
6100,-3900,0,7240.1657439592,-96913709.286277
6100,-4400,0,7521.3030785895,-111394550.43813
6100,-5000,0,7887.3316146844,-127824062.95823
6100,-2200,0,6484.5971347494,-54250037.184716
6200,-7100,0,9426.0277954184,-179368289.47951
6200,-4400,0,7602.6311234993,-111394550.43813
6200,-2200,0,6578.7536813594,-54250037.184716
6200,-3900,0,7324.616030892,-94685415.06309
6200,-400,0,6212.8898268036,-12821003.026615
6200,-4900,0,7902.5312400521,-122522282.05571
6200,-9200,0,11094.142598687,-237330402.34285
6200,-4200,0,7488.6580907396,-105742502.39636
6200,-6700,0,9128.5267157412,-173320308.2079
6200,-8900,0,10846.658471622,-229652275.36502
6200,-2400,0,6648.3080554379,-60133854.012947
6200,0,0,6200,-2660912.5215264
6200,-5100,0,8028.0757345705,-127824062.95823
6200,-2000,0,6514.5989899609,-54250037.184716
6200,-200,0,6203.2249677083,-5204890.2416857
6200,-1300,0,6334.8243858847,-31370911.350695
6200,-7200,0,9501.5788161758,-179368289.47951
6200,-5700,0,8421.9950130596,-143962642.35657
6200,-1600,0,6403.1242374328,-43028332.636855
6200,-9900,0,11681.181447097,-251443732.61188
6200,-3300,0,7023.5318750612,-86472894.110756
6200,-9100,0,11011.357772773,-229652275.36502
6200,-6000,0,8627.8618440492,-155405777.2411
6200,-1100,0,6296.8245965725,-27052710.834303
6200,-300,0,6207.2538211354,-5204890.2416857
6200,-6400,0,8910.6677639782,-161259749.38749
6200,-7700,0,9885.8484714262,-196492797.31813
6200,-3700,0,7220.1108024739,-94685415.06309
6200,-7800,0,9963.9349656649,-196492797.31813
6200,-8100,0,10200.4901843,-207342751.33291
6200,-5300,0,8156.5924257621,-135222468.91006
6200,-3600,0,7169.379331574,-89206631.692161
6200,-8600,0,10601.886624559,-214014913.87285
6200,-8300,0,10360.019305001,-214014913.87285
6200,-5800,0,8489.9941107165,-143962642.35657
6200,-3200,0,6977.105417005,-77844840.040474
6200,-1700,0,6428.8412641782,-43028332.636855
6200,-2600,0,6723.0945255886,-68508088.411193
6200,-6100,0,8697.7008456258,-155405777.2411
6200,-4000,0,7378.3466982787,-105742502.39636
6200,-5400,0,8221.9219164378,-138411636.12653
6200,-3400,0,7071.0678118655,-89206631.692161
6200,-8700,0,10683.164325236,-225165314.75926
6200,-1800,0,6456.0049566276,-43028332.636855
6200,-7300,0,9577.5779819326,-191169631.43008
6200,-1500,0,6378.8713735268,-38492039.798769
6200,-3000,0,6887.670143089,-77844840.040474
6200,-8000,0,10121.264743104,-207342751.33291
6200,-2100,0,6545.9911396213,-54250037.184716
6200,-6300,0,8839.117603019,-161259749.38749
6200,-5200,0,8091.9713296576,-130061245.46524
6200,-3500,0,7119.691004531,-89206631.692161
6200,-3800,0,7271.8635850791,-94685415.06309
6200,-9400,0,11260.550608207,-237330402.34285
6200,-7400,0,9654.0147089177,-191169631.43008
6200,-8500,0,10520.931517694,-214014913.87285
6200,-4700,0,7780.102827084,-122522282.05571
6200,-800,0,6251.3998432351,-17589116.092941
6200,-7000,0,9350.9357820488,-179368289.47951
6200,-4800,0,7840.9183135651,-122522282.05571
6200,-7900,0,10042.410069301,-199819474.78034
6200,-9300,0,11177.208953938,-237330402.34285
6200,-6200,0,8768.1240867132,-155405777.2411
6200,-500,0,6220.1286160336,-12821003.026615
6200,-6600,0,9055.3851381374,-173320308.2079
6200,-900,0,6264.9820430708,-24991923.136483
6200,-9800,0,11596.551211459,-251443732.61188
6200,-700,0,6239.3909959226,-17589116.092941
6200,-4600,0,7720.1036262475,-119914750.70263
6200,-8400,0,10440.306508911,-214014913.87285
6200,-4100,0,7433.0343736593,-105742502.39636
6200,-5600,0,8354.6394296822,-143962642.35657
6200,-9700,0,11512.167476197,-251443732.61188
6200,-1400,0,6356.0994328283,-34763202.726145
6200,-2800,0,6802.940540678,-72049486.344996
6200,-10000,0,11766.052864066,-251443732.61188
6200,-1200,0,6315.0613615388,-31370911.350695
6200,-2700,0,6762.3960250787,-72049486.344996
6200,-1900,0,6484.5971347494,-46237248.640827
6200,-7600,0,9808.1598681914,-191169631.43008
6200,-9600,0,11428.035701729,-247666360.0273
6200,-1000,0,6280.127387243,-27052710.834303
6200,-5000,0,7964.923100696,-127824062.95823
6200,-9000,0,10928.860873851,-229652275.36502
6200,-6800,0,9202.1736562619,-173320308.2079
6200,-2500,0,6685.0579653433,-60133854.012947
6200,-600,0,6228.964600959,-17589116.092941
6200,-3100,0,6931.8107302493,-77844840.040474
6200,-7500,0,9730.8786859153,-191169631.43008
6200,-2300,0,6612.8662469462,-60133854.012947
6200,-8800,0,10764.757312638,-229652275.36502
6200,-5900,0,8558.6213843118,-152096047.18105
6200,-5500,0,8287.9430499974,-138411636.12653
6200,-9500,0,11344.161493914,-237330402.34285
6200,-2900,0,6844.705983459,-72049486.344996
6200,-4300,0,7545.1971478551,-111394550.43813
6200,-8200,0,10280.077820717,-207342751.33291
6200,-6500,0,8982.761268118,-161259749.38749
6200,-6900,0,9276.3139231054,-173320308.2079
6200,-4500,0,7660.9398901179,-111394550.43813
6200,-100,0,6200.806399171,-2660912.5215264
6300,-3600,0,7256.0319734687,-89206631.692161
6300,-4500,0,7742.0927403384,-114552001.1647
6300,-8800,0,10822.661410208,-227418200.3228
6300,-3400,0,7158.9105316382,-86472894.110756
6300,-6000,0,8700,-152096047.18105
6300,-8500,0,10580.170130957,-216570091.77655
6300,-4400,0,7684.3997813753,-114552001.1647
6300,-3900,0,7409.4534211371,-97603310.234273
6300,-7900,0,10104.454463255,-199819474.78034
6300,-2900,0,6935.4163537599,-72049486.344996
6300,-600,0,6328.5069329187,-12821003.026615
6300,-200,0,6303.1738037278,-2660912.5215264
6300,-7300,0,9642.6137535421,-188257769.74972
6300,-1500,0,6476.1099434769,-38492039.798769
6300,-2500,0,6777.9052811322,-63011931.597807
6300,-1900,0,6580.2735505448,-45502055.964402
6300,-9700,0,11566.330446602,-251443732.61188
6300,-9000,0,10985.90005416,-229652275.36502
6300,-4900,0,7981.227975694,-122522282.05571
6300,-6500,0,9052.0715861067,-163958921.62025
6300,-9500,0,11399.122773266,-241411547.19916
6300,-9600,0,11482.595525403,-248116785.45644
6300,-900,0,6363.9610306789,-24991923.136483
6300,-2700,0,6854.1957952775,-69111474.132196
6300,-7000,0,9417.5368329516,-179368289.47951
6300,-9400,0,11315.917991926,-237330402.34285
6300,-6600,0,9124.1437954473,-170022472.41719
6300,-1200,0,6413.2674979296,-31370911.350695
6300,-2300,0,6706.7130548429,-60133854.012947
6300,-1000,0,6378.8713735268,-24991923.136483
6300,-5500,0,8363.013810822,-138411636.12653
6300,-2800,0,6894.2004612573,-72049486.344996
6300,-7700,0,9948.8692824863,-196492797.31813
6300,-7600,0,9871.6766559688,-191169631.43008
6300,-9900,0,11734.564329365,-251443732.61188
6300,-8400,0,10500,-214014913.87285
6300,-2400,0,6741.6615162733,-60133854.012947
6300,-1400,0,6453.681120105,-34763202.726145
6300,-4200,0,7571.6576784744,-105742502.39636
6300,-5000,0,8043.0093870392,-130061245.46524
6300,-3300,0,7111.9617546778,-86472894.110756
6300,-9100,0,11067.971810589,-229652275.36502
6300,-5700,0,8495.8813551038,-146303762.9526
6300,-8100,0,10261.578825892,-205188894.52856
6300,-5200,0,8168.8432473637,-130061245.46524
6300,-4600,0,7800.6409993026,-119914750.70263
6300,-5900,0,8631.338250816,-152096047.18105
6300,-4800,0,7920.2272694665,-119914750.70263
6300,-500,0,6319.81012373,-12821003.026615
6300,0,0,6300,-2660912.5215264
6300,-4700,0,7860.0254452514,-119914750.70263
6300,-4000,0,7462.5732827223,-103255782.56307
6300,-3800,0,7357.3092907666,-97603310.234273
6300,-3500,0,7206.9410986909,-89206631.692161
6300,-1600,0,6500,-43028332.636855
6300,-3000,0,6977.8220097678,-77844840.040474
6300,-6100,0,8769.2645073575,-155405777.2411
6300,-8600,0,10660.675400743,-216570091.77655
6300,-2200,0,6673.0802482811,-54250037.184716
6300,-6700,0,9196.7385523347,-170022472.41719
6300,-5300,0,8232.8609851011,-135222468.91006
6300,-6200,0,8839.117603019,-155405777.2411
6300,-3700,0,7306.1617830431,-94685415.06309
6300,-6300,0,8909.5454429505,-161259749.38749
6300,-10000,0,11819.052415486,-251443732.61188
6300,-2000,0,6609.8411478643,-51399165.264677
6300,-7800,0,10026.464980241,-199819474.78034
6300,-8300,0,10420.17274329,-214014913.87285
6300,-8000,0,10182.828683622,-205188894.52856
6300,-3200,0,7066.1163307718,-80898284.383099
6300,-6400,0,8980.5345052508,-163958921.62025
6300,-800,0,6350.590523723,-20226847.956566
6300,-2100,0,6640.7830863536,-54250037.184716
6300,-9800,0,11650.321883965,-251443732.61188
6300,-7400,0,9718.5389848475,-188257769.74972
6300,-9200,0,11150.336317798,-237330402.34285
6300,-1800,0,6552.0989003525,-45502055.964402
6300,-1700,0,6525.3352404302,-43028332.636855
6300,-7500,0,9794.8966303887,-191169631.43008
6300,-9300,0,11232.987136109,-237330402.34285
6300,-5600,0,8429.1162051546,-143962642.35657
6300,-7200,0,9567.1312314612,-182276234.09759
6300,-6800,0,9269.8435801258,-173320308.2079
6300,-6900,0,9343.4469014385,-173320308.2079
6300,-4300,0,7627.58153021,-111394550.43813
6300,-7100,0,9492.1019800674,-179368289.47951
6300,-1300,0,6432.7288144302,-34763202.726145
6300,-700,0,6338.7695966962,-17589116.092941
6300,-8900,0,10904.127658827,-227418200.3228
6300,-400,0,6312.6856408347,-12821003.026615
6300,-8700,0,10741.508273981,-221848253.6401
6300,-8200,0,10340.696301507,-207342751.33291
6300,-5400,0,8297.5900115636,-135222468.91006
6300,-3100,0,7021.3958726168,-80898284.383099
6300,-1100,0,6395.3107821278,-27052710.834303
6300,-300,0,6307.1388124886,-5547760.2322859
6300,-5800,0,8563.293758829,-146303762.9526
6300,-5100,0,8105.5536516638,-130061245.46524
6300,-100,0,6300.7936008093,-2660912.5215264
6300,-2600,0,6815.4236845555,-69111474.132196
6300,-4100,0,7516.6481891865,-103255782.56307
6400,-2600,0,6907.9664156682,-69111474.132196
6400,-3400,0,7247.0683727974,-86472894.110756
6400,-8800,0,10881.176406988,-227418200.3228
6400,-4100,0,7600.6578662639,-103255782.56307
6400,-6000,0,8772.6848797845,-152096047.18105
6400,-9400,0,11371.895180664,-241411547.19916
6400,-8500,0,10640.018796976,-216570091.77655
6400,-4400,0,7766.595135579,-114552001.1647
6400,-5100,0,8183.5200250259,-130061245.46524
6400,-100,0,6400.7812023221,-2660912.5215264
6400,0,0,6400,-2660912.5215264
6400,-1100,0,6493.8432380217,-27939484.785959
6400,-10000,0,11872.657663725,-251443732.61188
6400,-4500,0,7823.6819976275,-114552001.1647
6400,-300,0,6407.0273918565,-5547760.2322859
6400,-7900,0,10167.103815738,-199819474.78034
6400,-2900,0,7026.3788682365,-69111474.132196
6400,-5800,0,8637.1291526757,-146303762.9526
6400,-200,0,6403.1242374328,-5547760.2322859
6400,-5400,0,8373.7685661833,-135222468.91006
6400,-3100,0,7111.2586790244,-80898284.383099
6400,-3900,0,7494.6647690207,-97603310.234273
6400,-1900,0,6676.0766921898,-45502055.964402
6400,-700,0,6438.1674411279,-20226847.956566
6400,-8200,0,10401.922899157,-205188894.52856
6400,-2500,0,6870.9533545208,-63011931.597807
6400,-8700,0,10800.46295304,-221848253.6401
6400,-9700,0,11621.101496846,-248116785.45644
6400,-8900,0,10962.207806824,-227418200.3228
6400,-600,0,6428.0634719953,-12821003.026615
6400,-9000,0,11043.550153823,-227418200.3228
6400,-1300,0,6530.6967469023,-33396709.94832
6400,-1500,0,6573.4313718179,-33396709.94832
6400,-7300,0,9708.2439194738,-188257769.74972
6400,-1700,0,6621.9332524573,-45502055.964402
6400,-4300,0,7710.3826104805,-111933180.02754
6400,-6500,0,9121.951545585,-163958921.62025
6400,-6800,0,9338.094023943,-170022472.41719
6400,-6900,0,9411.1635837446,-173320308.2079
6400,-7000,0,9484.7245611035,-182276234.09759
6400,-9500,0,11454.693361238,-241411547.19916
6400,-7200,0,9633.2756630338,-182276234.09759
6400,-900,0,6462.9714528226,-24991923.136483
6400,-9200,0,11207.140580898,-229652275.36502
6400,-2700,0,6946.2219947249,-69111474.132196
6400,-7500,0,9859.5131725659,-188257769.74972
6400,-9300,0,11289.375536317,-241411547.19916
6400,-7100,0,9558.7656106843,-182276234.09759
6400,-1200,0,6511.5282384399,-33396709.94832
6400,-2300,0,6800.7352543677,-63011931.597807
6400,-1000,0,6477.6538962807,-24991923.136483
6400,-1800,0,6648.3080554379,-45502055.964402
6400,-6600,0,9193.475947649,-170022472.41719
6400,-7400,0,9783.659846908,-188257769.74972
6400,-2400,0,6835.202996254,-63011931.597807
6400,-5500,0,8438.6017799159,-137230205.47105
6400,-9800,0,11704.69991072,-248116785.45644
6400,-3700,0,7392.5638313105,-97603310.234273
6400,-9900,0,11788.553770501,-251443732.61188
6400,-7600,0,9935.7938786994,-191169631.43008
6400,-2100,0,6735.7256476196,-51399165.264677
6400,-800,0,6449.8061986388,-20226847.956566
6400,-2800,0,6985.6996786292,-69111474.132196
6400,-8400,0,10560.303025955,-216570091.77655
6400,-6400,0,9050.9667991878,-163958921.62025
6400,-1400,0,6551.3357416637,-33396709.94832
6400,-4200,0,7655.0636836019,-103255782.56307
6400,-7700,0,10012.49219725,-199819474.78034
6400,-3200,0,7155.4175279993,-80898284.383099
6400,-5000,0,8121.5762016988,-127411076.30061
6400,-8000,0,10244.998779893,-205188894.52856
6400,-7800,0,10089.598604504,-199819474.78034
6400,-3300,0,7200.6944109579,-86472894.110756
6400,-8300,0,10480.935072788,-216570091.77655
6400,-5600,0,8504.1166501877,-146303762.9526
6400,-9100,0,11125.196627476,-227418200.3228
6400,-5200,0,8246.2112512353,-135222468.91006
6400,-2000,0,6705.2218456961,-51399165.264677
6400,-4600,0,7881.6241980952,-114552001.1647
6400,-8100,0,10323.274674249,-205188894.52856
6400,-4900,0,8060.3970125547,-122559320.12144
6400,-5300,0,8309.6329642169,-135222468.91006
6400,-6300,0,8980.5345052508,-163958921.62025
6400,-6200,0,8910.6677639782,-160606765.66821
6400,-6700,0,9265.5275079188,-170022472.41719
6400,-5900,0,8704.5964869143,-152096047.18105
6400,-2200,0,6767.5697262755,-51399165.264677
6400,-4800,0,8000,-122559320.12144
6400,-500,0,6419.5015382816,-10719867.830517
6400,-3600,0,7343.0239002743,-89227623.460565
6400,-9600,0,11537.764081485,-248116785.45644
6400,-8600,0,10720.074626606,-216570091.77655
6400,-4700,0,7940.4030124421,-119914750.70263
6400,-3800,0,7443.1176263714,-97603310.234273
6400,-4000,0,7547.1849056453,-103255782.56307
6400,-6100,0,8841.3799827855,-152096047.18105
6400,-3000,0,7068.2388188289,-80898284.383099
6400,-400,0,6412.4878167526,-10719867.830517
6400,-5700,0,8570.2975444263,-146303762.9526
6400,-1600,0,6596.9690009883,-45502055.964402
6400,-3500,0,7294.5184899348,-86472894.110756
6500,-5700,0,8645.2298986204,-142758873.78543
6500,-400,0,6512.296062066,-10719867.830517
6500,-4000,0,7632.1687612369,-103255782.56307
6500,-6100,0,8914.0338792266,-154599396.4182
6500,-9600,0,11593.532679904,-248116785.45644
6500,-1600,0,6694.0271884718,-42434960.134964
6500,-3800,0,7529.2761936324,-94875518.564089
6500,-2100,0,6830.8125431752,-53982862.73804
6500,-3000,0,7158.9105316382,-77818814.495553
6500,-8600,0,10780.074211247,-221848253.6401
6500,-5000,0,8200.6097334284,-127411076.30061
6500,-4700,0,8021.2218520622,-122559320.12144
6500,-3600,0,7430.343195304,-89227623.460565
6500,-8100,0,10385.566907974,-205188894.52856
6500,-6200,0,8982.761268118,-160606765.66821
6500,-4900,0,8140.0245699875,-122559320.12144
6500,-5900,0,8778.3825389419,-152096047.18105
6500,-5300,0,8386.8945385047,-137230205.47105
6500,-4800,0,8080.2227692063,-122559320.12144
6500,-6700,0,9334.880824092,-170022472.41719
6500,-10000,0,11926.860441877,-251443732.61188
6500,-2000,0,6800.7352543677,-51399165.264677
6500,-4600,0,7963.0396206474,-114552001.1647
6500,-6300,0,9052.0715861067,-160606765.66821
6500,-5200,0,8324.0615086627,-135222468.91006
6500,-9100,0,11183.022847155,-232163316.29002
6500,-2200,0,6862.2153857191,-53982862.73804
6500,-8300,0,10542.295765155,-214479547.11169
6500,-5600,0,8579.6270315207,-142758873.78543
6500,-8000,0,10307.764064044,-205188894.52856
6500,-3300,0,7289.718787443,-86472894.110756
6500,-3200,0,7244.998274672,-80898284.383099
6500,-7700,0,10076.705810928,-197694627.35173
6500,-800,0,6549.0457320132,-19651361.320767
6500,-6400,0,9121.951545585,-163958921.62025
6500,-1400,0,6649.0600839517,-36622768.583927
6500,-4200,0,7738.8629655783,-106288835.00606
6500,-1800,0,6744.6274915669,-45502055.964402
6500,-8400,0,10621.205204684,-214479547.11169
6500,-2800,0,7077.4289116882,-71824330.861839
6500,-7800,0,10153.324578679,-199819474.78034
6500,-500,0,6519.2024052026,-10719867.830517
6500,-7400,0,9849.365461795,-188257769.74972
6500,-9900,0,11843.141475132,-248116785.45644
6500,-1000,0,6576.473218983,-27939484.785959
6500,-5500,0,8514.6931829632,-142758873.78543
6500,-7600,0,10000.499987501,-191460223.32335
6500,-9800,0,11759.676866309,-248116785.45644
6500,-6600,0,9263.3687176966,-170022472.41719
6500,-3700,0,7479.3047805261,-94875518.564089
6500,-9300,0,11346.365056704,-238490262.96549
6500,-1200,0,6609.8411478643,-33396709.94832
6500,-2300,0,6894.9256703753,-59718230.73198
6500,-3500,0,7382.4115301167,-89227623.460565
6500,-7100,0,9626.0064408871,-182276234.09759
6500,-2400,0,6928.924880528,-59718230.73198
6500,-7500,0,9924.7166206396,-188257769.74972
6500,-6900,0,9479.4514609233,-172866918.50753
6500,-900,0,6562.0118866092,-24799629.990724
6500,0,0,6500,-2943927.525857
6500,-9500,0,11510.864433221,-241411547.19916
6500,-7200,0,9700,-182276234.09759
6500,-2700,0,7038.4657419071,-69111474.132196
6500,-9200,0,11264.546151532,-232163316.29002
6500,-6800,0,9406.9123520951,-172866918.50753
6500,-6500,0,9192.3881554251,-163958921.62025
6500,-7000,0,9552.4865872714,-179071615.8483
6500,-7300,0,9774.4565066299,-188257769.74972
6500,-1700,0,6718.6308128963,-42434960.134964
6500,-1500,0,6670.8320320632,-36622768.583927
6500,-1300,0,6628.7253676706,-33396709.94832
6500,-600,0,6527.633568147,-14901933.660216
6500,-4300,0,7793.5871073595,-111933180.02754
6500,-8900,0,11020.889256317,-227418200.3228
6500,-8700,0,10860.018416191,-221848253.6401
6500,-9700,0,11676.472069936,-248116785.45644
6500,-8200,0,10463.746938836,-209749351.52987
6500,-3100,0,7201.3887549555,-77818814.495553
6500,-9000,0,11101.801655587,-227418200.3228
6500,-3900,0,7580.2374632989,-97603310.234273
6500,-2500,0,6964.1941385921,-63011931.597807
6500,-1900,0,6772.0011813348,-45502055.964402
6500,-5800,0,8711.4866699089,-146303762.9526
6500,-200,0,6503.0761951556,-5547760.2322859
6500,-5400,0,8450.4437753292,-137230205.47105
6500,-700,0,6537.5836514725,-19651361.320767
6500,-7900,0,10230.347012687,-199819474.78034
6500,-4500,0,7905.6941504209,-111933180.02754
6500,-300,0,6506.919393999,-5547760.2322859
6500,-100,0,6500.769185258,-5547760.2322859
6500,-9400,0,11428.473213864,-241411547.19916
6500,-4400,0,7849.2037812762,-111933180.02754
6500,-8500,0,10700.467279516,-214479547.11169
6500,-1100,0,6592.4198895398,-27939484.785959
6500,-2900,0,7117.5838597097,-71824330.861839
6500,-8800,0,10940.29250066,-221848253.6401
6500,-5100,0,8261.9610262939,-127411076.30061
6500,-6000,0,8845.9030064771,-154599396.4182
6500,-4100,0,7685.0504227363,-106288835.00606
6500,-2600,0,7000.7142492749,-69111474.132196
6500,-3400,0,7335.5299740373,-89227623.460565
6600,-4400,0,7932.2128060208,-111933180.02754
6600,-2900,0,7209.0221250874,-71824330.861839
6600,-8800,0,11000,-221848253.6401
6600,-4500,0,7988.1161734166,-111933180.02754
6600,-1900,0,6868.0419334771,-50856958.322649
6600,-600,0,6627.2166103124,-14901933.660216
6600,-7000,0,9620.8107766446,-179071615.8483
6600,-6000,0,8919.6412483911,-154599396.4182
6600,-2700,0,7130.9185944028,-71824330.861839
6600,-2400,0,7022.8199464318,-59718230.73198
6600,-1200,0,6708.2039324994,-27939484.785959
6600,-9900,0,11898.319209031,-251652827.71223
6600,-9300,0,11403.946685249,-238490262.96549
6600,-4200,0,7823.0428862432,-106288835.00606
6600,-5600,0,8655.634003353,-142758873.78543
6600,-8500,0,10761.50547089,-214479547.11169
6600,-2100,0,6926.0378283691,-53982862.73804
6600,-4800,0,8160.8823052413,-122559320.12144
6600,-3600,0,7517.978451685,-89227623.460565
6600,-9600,0,11649.892703369,-241411547.19916
6600,-5700,0,8720.6651122492,-142758873.78543
6600,-3000,0,7249.8275841567,-77818814.495553
6600,-6200,0,9055.3851381374,-160606765.66821
6600,-8100,0,10448.444860361,-209749351.52987
6600,-200,0,6603.0296076877,-5547760.2322859
6600,-8000,0,10371.113729971,-205188894.52856
6600,-6300,0,9124.1437954473,-160606765.66821
6600,-7700,0,10141.498903022,-197694627.35173
6600,-1800,0,6841.0525505948,-42434960.134964
6600,-9000,0,11160.645142643,-232163316.29002
6600,-3900,0,7666.1594035084,-97735418.889696
6600,-3700,0,7566.3729752108,-94875518.564089
6600,-6900,0,9548.2982777037,-172866918.50753
6600,-4300,0,7877.1822373232,-111933180.02754
6600,-8700,0,10920.164833921,-219723688.47464
6600,-9700,0,11732.433677631,-248116785.45644
6600,-5400,0,8527.6022421311,-137230205.47105
6600,-700,0,6637.017402418,-14901933.660216
6600,-5100,0,8340.8632646747,-128743573.52941
6600,-1500,0,6768.3085036071,-36622768.583927
6600,-4100,0,7769.8133825723,-106288835.00606
6600,-7900,0,10294.173109094,-199819474.78034
6600,-1100,0,6691.038783328,-24799629.990724
6600,-100,0,6600.7575322837,-2943927.525857
6600,-9400,0,11485.643212289,-238490262.96549
6600,-300,0,6606.8146636636,-5547760.2322859
6600,-2500,0,7057.6199954376,-59718230.73198
6600,-3100,0,7291.7761896537,-77818814.495553
6600,-8200,0,10526.157893553,-209749351.52987
6600,-5800,0,8786.3530545955,-144974277.26252
6600,-6500,0,9263.3687176966,-160606765.66821
6600,-7300,0,9841.2397592986,-188257769.74972
6600,-1700,0,6815.4236845555,-42434960.134964
6600,-1300,0,6726.8120235369,-36622768.583927
6600,-9500,0,11567.627241574,-241411547.19916
6600,0,0,6600,-2943927.525857
6600,-2600,0,7093.6591403873,-68370928.903688
6600,-6800,0,9476.2861923857,-172866918.50753
6600,-9200,0,11322.543883775,-232163316.29002
6600,-900,0,6661.0809933524,-24799629.990724
6600,-7200,0,9767.2923576598,-182276234.09759
6600,-8900,0,11080.162453683,-227418200.3228
6600,-7500,0,9990.495483208,-191460223.32335
6600,-3500,0,7470.6090782479,-89227623.460565
6600,-3400,0,7424.2844773082,-89227623.460565
6600,-7100,0,9693.8124595022,-179071615.8483
6600,-6600,0,9333.8095116624,-172866918.50753
6600,-9800,0,11815.244390194,-248116785.45644
6600,-7600,0,10065.783625729,-191460223.32335
6600,-7400,0,9915.6442049924,-191460223.32335
6600,-500,0,6618.9122973492,-14901933.660216
6600,-5000,0,8280.0966177938,-127411076.30061
6600,-7800,0,10217.631819556,-197694627.35173
6600,-6400,0,9193.475947649,-160606765.66821
6600,-800,0,6648.3080554379,-19651361.320767
6600,-5200,0,8402.38061504,-133405031.45336
6600,-3200,0,7334.8483283569,-77818814.495553
6600,-8300,0,10604.244433245,-209749351.52987
6600,-2200,0,6957.0108523704,-53982862.73804
6600,-2000,0,6896.3758598267,-53982862.73804
6600,-1600,0,6791.1707385399,-42434960.134964
6600,-6700,0,9404.7860156412,-172866918.50753
6600,-5500,0,8591.2746434973,-142758873.78543
6600,-5300,0,8464.6323015238,-137230205.47105
6600,-4700,0,8102.4687595819,-120696644.54779
6600,-1000,0,6675.3277073115,-24799629.990724
6600,-8600,0,10840.664186294,-219723688.47464
6600,-6100,0,8987.2131386765,-154599396.4182
6600,-2800,0,7169.379331574,-71824330.861839
6600,-400,0,6612.1101019266,-10719867.830517
6600,-4000,0,7717.5125526299,-103491188.24145
6600,-3800,0,7615.7731058639,-94875518.564089
6600,-4900,0,8220.0973230248,-122559320.12144
6600,-8400,0,10682.696288859,-214479547.11169
6600,-5900,0,8852.6832090615,-154599396.4182
6600,-4600,0,8044.8741444475,-115437534.46058
6600,-1400,0,6746.8511173732,-36622768.583927
6600,-9100,0,11241.441188744,-232163316.29002
6600,-10000,0,11981.6526406,-251652827.71223
6600,-2300,0,6989.2775020026,-59718230.73198
6600,-3300,0,7379.0243257493,-86292172.175494
6700,-8000,0,10435.037134577,-201430578.40325
6700,-3200,0,7424.9579123386,-80460238.197419
6700,-3100,0,7382.4115301167,-80460238.197419
6700,-8200,0,10589.145385724,-209749351.52987
6700,-5400,0,8605.2309672664,-137230205.47105
6700,-2900,0,7300.6848993776,-71824330.861839
6700,-3300,0,7468.6009399351,-86292172.175494
6700,-1000,0,6774.215821776,-27210243.364324
6700,-9100,0,11300.442469213,-232163316.29002
6700,-5800,0,8861.7154095581,-144974277.26252
6700,-4600,0,8127.1151093115,-115437534.46058
6700,-1400,0,6844.705983459,-36622768.583927
6700,-2300,0,7083.7842993699,-59718230.73198
6700,-4400,0,8015.6097709407,-115437534.46058
6700,-6500,0,9334.880824092,-163266585.37826
6700,-9400,0,11543.396380615,-238490262.96549
6700,-100,0,6700.7462271004,-2943927.525857
6700,-4500,0,8070.9355095924,-115437534.46058
6700,-1700,0,6912.3078635142,-45195834.012365
6700,-7300,0,9908.5821387321,-188474983.50002
6700,-300,0,6706.7130548429,-2943927.525857
6700,-5900,0,8927.4856482663,-151019169.82935
6700,0,0,6700,-2943927.525857
6700,-1300,0,6824.9542123006,-33577045.363626
6700,-1900,0,6964.1941385921,-50856958.322649
6700,-8800,0,11060.289327138,-222253173.41462
6700,-8400,0,10744.766167767,-214479547.11169
6700,-7900,0,10358.571330063,-197694627.35173
6700,-2600,0,7186.7934435324,-68370928.903688
6700,-600,0,6726.8120235369,-14901933.660216
6700,-1100,0,6789.6980787072,-27210243.364324
6700,-6800,0,9546.2034338265,-172866918.50753
6700,-3800,0,7702.5969646607,-97735418.889696
6700,-1500,0,6865.8575575087,-36622768.583927
6700,-4100,0,7854.9347546622,-103491188.24145
6700,-7200,0,9835.1410767716,-182069513.72276
6700,-7000,0,9689.6852374058,-179071615.8483
6700,-4000,0,7803.2044699598,-103491188.24145
6700,-2700,0,7223.5725233433,-68370928.903688
6700,-400,0,6711.9296778199,-14170521.823356
6700,-6000,0,8993.886812719,-151019169.82935
6700,-10000,0,12037.026210821,-251652827.71223
6700,-2800,0,7261.5425358528,-71824330.861839
6700,-9200,0,11381.124724736,-232163316.29002
6700,-900,0,6760.1775124622,-24799629.990724
6700,-9500,0,11624.973118248,-238490262.96549
6700,-2400,0,7116.8813394632,-62361934.234781
6700,-9700,0,11788.977903109,-251652827.71223
6700,-7500,0,10056.83846942,-191460223.32335
6700,-5100,0,8420.2137740084,-128743573.52941
6700,-4900,0,8300.6023877789,-124574106.87218
6700,-3500,0,7559.1004755857,-86292172.175494
6700,-700,0,6736.4679172397,-14901933.660216
6700,-4700,0,8184.130986244,-120696644.54779
6700,-3400,0,7513.3215025047,-86292172.175494
6700,-7100,0,9762.1718894926,-179071615.8483
6700,-9900,0,11954.078801815,-251652827.71223
6700,-1200,0,6806.6144300967,-27210243.364324
6700,-9300,0,11462.111498324,-238490262.96549
6700,-8600,0,10901.834707975,-219723688.47464
6700,-4300,0,7961.1556949981,-111933180.02754
6700,-8900,0,11140.017953307,-229112358.61077
6700,-8700,0,10980.892495603,-219723688.47464
6700,-4200,0,7907.5912893877,-106288835.00606
6700,-6100,0,9060.9050320594,-154599396.4182
6700,-5500,0,8668.3331731077,-142758873.78543
6700,-7600,0,10131.633629381,-191460223.32335
6700,-6700,0,9475.2308678997,-172866918.50753
6700,-9800,0,11871.394189395,-251652827.71223
6700,-6600,0,9404.7860156412,-169461766.37624
6700,-5600,0,8732.1245982865,-144974277.26252
6700,-6900,0,9617.6920308357,-179071615.8483
6700,-2100,0,7021.3958726168,-50856958.322649
6700,-8500,0,10823.123393919,-219723688.47464
6700,-5000,0,8360.0239234107,-128743573.52941
6700,-2000,0,6992.1384425653,-50856958.322649
6700,-3700,0,7653.757247261,-94875518.564089
6700,-1600,0,6888.3960397178,-42434960.134964
6700,-7400,0,9982.4846606444,-191460223.32335
6700,-4800,0,8241.9657849326,-120696644.54779
6700,-3900,0,7752.4189773257,-97735418.889696
6700,-9000,0,11220.071301021,-232163316.29002
6700,-5300,0,8542.8332536694,-133405031.45336
6700,-1800,0,6937.578828381,-45195834.012365
6700,-3600,0,7605.9187479226,-89227623.460565
6700,-500,0,6718.6308128963,-14901933.660216
6700,-7700,0,10206.86043796,-197694627.35173
6700,-2200,0,7051.9500849056,-53982862.73804
6700,-7800,0,10282.509421343,-197694627.35173
6700,-9600,0,11706.835610019,-241411547.19916
6700,-5200,0,8481.155581641,-133405031.45336
6700,-5700,0,8796.5902484997,-144974277.26252
6700,-800,0,6747.5921631349,-19651361.320767
6700,-6300,0,9196.7385523347,-160606765.66821
6700,-8300,0,10666.770832825,-209749351.52987
6700,-6400,0,9265.5275079188,-163266585.37826
6700,-6200,0,9128.5267157412,-160606765.66821
6700,-200,0,6702.9844099476,-2943927.525857
6700,-3000,0,7340.9808608932,-77818814.495553
6700,-2500,0,7151.2236715124,-62361934.234781
6700,-8100,0,10511.898020814,-209749351.52987
6800,-3000,0,7432.3616704248,-80460238.197419
6800,-1500,0,6963.4761434215,-35959932.044471
6800,-8100,0,10575.916035975,-208105132.39682
6800,-6400,0,9338.094023943,-163266585.37826
6800,-9600,0,11764.352935882,-242287263.85687
6800,-8300,0,10729.864864014,-208105132.39682
6800,-800,0,6846.8971074495,-18153587.825184
6800,-5700,0,8872.9927307532,-144974277.26252
6800,-200,0,6802.940540678,-5144063.5543568
6800,-5200,0,8560.3738236131,-133405031.45336
6800,-6300,0,9269.8435801258,-163266585.37826
6800,-2200,0,7147.0273540823,-53441105.54467
6800,-9000,0,11280.070921763,-229112358.61077
6800,-8500,0,10885.311203636,-222253173.41462
6800,-7700,0,10272.779565434,-197694627.35173
6800,-6100,0,9135.0971532874,-151019169.82935
6800,-500,0,6818.3575734923,-14170521.823356
6800,-4900,0,8381.5273071201,-124574106.87218
6800,-1800,0,7034.2021580276,-45195834.012365
6800,-5300,0,8621.4847909162,-133405031.45336
6800,-3400,0,7602.6311234993,-86292172.175494
6800,-3600,0,7694.1536246685,-89041594.925461
6800,-7400,0,10049.875621121,-188474983.50002
6800,-1600,0,6985.6996786292,-45195834.012365
6800,-4800,0,8323.4608186739,-120696644.54779
6800,-3700,0,7741.4468931848,-97735418.889696
6800,-2000,0,7088.0180586677,-50856958.322649
6800,-8900,0,11200.446419675,-229112358.61077
6800,-10000,0,12092.973166265,-251652827.71223
6800,-6900,0,9687.6209669867,-179071615.8483
6800,-2100,0,7116.8813394632,-50856958.322649
6800,-6600,0,9476.2861923857,-169461766.37624
6800,-5600,0,8809.0862182181,-144974277.26252
6800,-6700,0,9546.2034338265,-169461766.37624
6800,-9800,0,11928.118040999,-251652827.71223
6800,-3900,0,7839.0050389064,-97735418.889696
6800,-5000,0,8440.3791384037,-128743573.52941
6800,-2700,0,7316.4198895361,-68370928.903688
6800,-7600,0,10198.039027186,-191460223.32335
6800,-7200,0,9903.534722512,-182069513.72276
6800,-8700,0,11042.191811411,-222253173.41462
6800,-4200,0,7992.4964810752,-103491188.24145
6800,-8600,0,10963.576058933,-222253173.41462
6800,-1200,0,6905.0706006528,-33577045.363626
6800,-7100,0,9831.0731865855,-182069513.72276
6800,-9900,0,12010.412149464,-251652827.71223
6800,-4700,0,8266.196223173,-120696644.54779
6800,-5500,0,8745.8561616345,-140907680.58271
6800,-700,0,6835.934464285,-14170521.823356
6800,-4300,0,8045.4956342043,-112821118.6124
6800,-9700,0,11846.096403457,-248743026.01531
6800,-9200,0,11440.27971686,-232163316.29002
6800,-3500,0,7647.8755219996,-86292172.175494
6800,-7800,0,10347.946656221,-201430578.40325
6800,-3200,0,7515.3176912224,-80460238.197419
6800,-5100,0,8500,-133405031.45336
6800,-6200,0,9202.1736562619,-163266585.37826
6800,-9500,0,11682.893477217,-242287263.85687
6800,-2400,0,7211.102550928,-62361934.234781
6800,-9300,0,11520.850663037,-238490262.96549
6800,-2800,0,7353.9105243401,-68370928.903688
6800,-4000,0,7889.2331693264,-103491188.24145
6800,-4100,0,7940.4030124421,-103491188.24145
6800,-400,0,6811.7545463706,-9596285.0967349
6800,-7000,0,9759.0983190047,-182069513.72276
6800,-8400,0,10807.404868885,-209749351.52987
6800,-900,0,6859.300255857,-27210243.364324
6800,-3800,0,7789.7368376602,-97735418.889696
6800,-6800,0,9616.652224137,-169461766.37624
6800,-1100,0,6888.3960397178,-27210243.364324
6800,-600,0,6826.4192663504,-14170521.823356
6800,-1300,0,6923.1495722684,-33577045.363626
6800,-2600,0,7280.1098892805,-68370928.903688
6800,-6000,0,9068.6272390037,-151019169.82935
6800,-8800,0,11121.151019566,-222253173.41462
6800,-300,0,6806.6144300967,-5144063.5543568
6800,-1400,0,6942.6219830839,-33577045.363626
6800,-5900,0,9002.7773492406,-151019169.82935
6800,-1900,0,7060.4532432415,-50856958.322649
6800,-4500,0,8154.1400527585,-115437534.46058
6800,-1700,0,7009.27956355,-45195834.012365
6800,-7900,0,10423.531071571,-201430578.40325
6800,-2300,0,7178.4399419372,-62361934.234781
6800,-100,0,6800.7352543677,-2943927.525857
6800,-5800,0,8937.5611886017,-144974277.26252
6800,-7500,0,10123.734488814,-188474983.50002
6800,-6500,0,9406.9123520951,-163266585.37826
6800,-4400,0,8099.3826925266,-115437534.46058
6800,0,0,6800,-2943927.525857
6800,-9400,0,11601.724009819,-238490262.96549
6800,-7300,0,9976.4723224194,-188474983.50002
6800,-9100,0,11360.01760562,-232163316.29002
6800,-4600,0,8209.7503007095,-115437534.46058
6800,-1000,0,6873.1361109758,-27210243.364324
6800,-5400,0,8683.317338437,-134876789.91229
6800,-8200,0,10652.699188469,-208105132.39682
6800,-2900,0,7392.5638313105,-71180053.956459
6800,-3300,0,7558.4389922788,-86292172.175494
6800,-8000,0,10499.523798725,-201430578.40325
6800,-2500,0,7244.998274672,-62361934.234781
6800,-3100,0,7473.2857566134,-80460238.197419
6900,-1000,0,6972.0872054213,-23772140.55041
6900,-2500,0,7338.9372527635,-62361934.234781
6900,-3300,0,7648.5292703892,-86292172.175494
6900,-8000,0,10564.563407922,-201430578.40325
6900,-2900,0,7484.6509604657,-71180053.956459
6900,-5400,0,8761.8491199061,-134876789.91229
6900,-8200,0,10716.809226631,-208105132.39682
6900,-5500,0,8823.8313673823,-140907680.58271
6900,-100,0,6900.7245996344,-5144063.5543568
6900,-4600,0,8292.7679335672,-115437534.46058
6900,-9100,0,11420.157617126,-229112358.61077
6900,-7500,0,10191.172650878,-188474983.50002
6900,-5800,0,9013.87818866,-151019169.82935
6900,-7300,0,10044.899203078,-188474983.50002
6900,-1700,0,7106.3352017759,-41779395.127012
6900,-1900,0,7156.8149340332,-50856958.322649
6900,-5900,0,9078.5461391128,-151019169.82935
6900,-300,0,6906.5186599328,-9596285.0967349
6900,-2300,0,7273.2386183873,-59215346.389234
6900,-900,0,6958.4481028459,-23772140.55041
6900,-5000,0,8521.1501571091,-124574106.87218
6900,-6000,0,9143.8503924769,-153508596.34113
6900,-6800,0,9687.6209669867,-172335720.72293
6900,-1100,0,6987.1310278254,-27210243.364324
6900,-1300,0,7021.3958726168,-35959932.044471
6900,-4500,0,8237.7181306476,-112821118.6124
6900,-2600,0,7373.6015623303,-68370928.903688
6900,-4100,0,8026.2070743284,-106525287.73586
6900,-8800,0,11182.575731914,-222253173.41462
6900,-3800,0,7877.1822373232,-94834577.576767
6900,0,0,6900,-2256295.6919706
6900,-600,0,6926.0378283691,-14170521.823356
6900,-7000,0,9829.0386101592,-182069513.72276
6900,-400,0,6911.584478251,-9596285.0967349
6900,-5100,0,8580.2097876451,-133405031.45336
6900,-9500,0,11741.3798167,-242287263.85687
6900,-8400,0,10870.602559196,-211924007.0134
6900,-6500,0,9479.4514609233,-163266585.37826
6900,-1400,0,7040.5965656328,-35959932.044471
6900,-3500,0,7736.9244535539,-89041594.925461
6900,-10000,0,12149.485585818,-251652827.71223
6900,-9200,0,11500,-229112358.61077
6900,-6200,0,9276.3139231054,-159746281.01962
6900,-9300,0,11580.155439371,-242287263.85687
6900,-7800,0,10413.932974626,-201430578.40325
6900,-2800,0,7446.4756764526,-71180053.956459
6900,-4300,0,8130.1906496711,-112821118.6124
6900,-3100,0,7564.390259631,-77276715.208219
6900,-2400,0,7305.4773971316,-59215346.389234
6900,-7900,0,10489.041900955,-201430578.40325
6900,-700,0,6935.4163537599,-18153587.825184
6900,-3200,0,7605.9187479226,-80460238.197419
6900,-9900,0,12067.311216671,-251652827.71223
6900,-4700,0,8348.6525858967,-120696644.54779
6900,-9700,0,11903.780911962,-248743026.01531
6900,-4000,0,7975.5877526362,-103491188.24145
6900,-1200,0,7003.5705179573,-33577045.363626
6900,-4200,0,8077.7472107018,-106525287.73586
6900,-7100,0,9900.5050376231,-182069513.72276
6900,-3900,0,7925.9068881737,-97735418.889696
6900,-7600,0,10264.989040423,-188474983.50002
6900,-9400,0,11660.617479362,-242287263.85687
6900,-8700,0,11104.053313993,-222253173.41462
6900,-8600,0,11025.878649795,-222253173.41462
6900,-4400,0,8183.5200250259,-112821118.6124
6900,-7200,0,9972.4620831568,-182069513.72276
6900,-9800,0,11985.407794481,-248743026.01531
6900,-2700,0,7409.4534211371,-71180053.956459
6900,-2100,0,7212.4891681028,-53441105.54467
6900,-6900,0,9758.0735803744,-178737103.06733
6900,-5600,0,8886.5066252156,-140907680.58271
6900,-4900,0,8462.8600366543,-124574106.87218
6900,-6700,0,9617.6920308357,-169461766.37624
6900,-2000,0,7184.0100222647,-53441105.54467
6900,-3600,0,7782.6730626437,-89041594.925461
6900,-3700,0,7829.4316524254,-94834577.576767
6900,-8900,0,11261.438629234,-229112358.61077
6900,-6600,0,9548.2982777037,-169461766.37624
6900,-7400,0,10117.806086302,-188474983.50002
6900,-4800,0,8405.3554356731,-124574106.87218
6900,-3400,0,7692.2038454529,-89041594.925461
6900,-1600,0,7083.0784267859,-41779395.127012
6900,-500,0,6918.0922225712,-14170521.823356
6900,-1800,0,7130.9185944028,-45195834.012365
6900,-5300,0,8700.5746936625,-134876789.91229
6900,-7700,0,10339.24562045,-201430578.40325
6900,-200,0,6902.8979421689,-5144063.5543568
6900,-2200,0,7242.2372234,-53441105.54467
6900,-8300,0,10793.516572461,-208105132.39682
6900,-6300,0,9343.4469014385,-159746281.01962
6900,-5700,0,8949.8603341058,-144974277.26252
6900,-5200,0,8640.0231481171,-134876789.91229
6900,-800,0,6946.2219947249,-18153587.825184
6900,-9000,0,11340.634902861,-229112358.61077
6900,-1500,0,7061.1613775639,-35959932.044471
6900,-9600,0,11822.436297143,-242287263.85687
6900,-8100,0,10640.488710581,-208105132.39682
6900,-6400,0,9411.1635837446,-163266585.37826
6900,-6100,0,9209.7774131626,-153508596.34113
6900,-3000,0,7523.9617223907,-77276715.208219
6900,-8500,0,10948.059188733,-218720882.38681
7000,-8500,0,11011.357772773,-218720882.38681
7000,-2200,0,7337.5745311377,-53441105.54467
7000,-6400,0,9484.7245611035,-159746281.01962
7000,-6100,0,9284.9340331528,-153508596.34113
7000,-800,0,7045.5659815234,-18153587.825184
7000,-8100,0,10705.606008069,-208105132.39682
7000,-9000,0,11401.754250991,-229112358.61077
7000,-5700,0,9027.181176868,-140907680.58271
7000,-5200,0,8720.0917426367,-134876789.91229
7000,-8300,0,10857.716150278,-211924007.0134
7000,-7100,0,9970.4563586628,-178737103.06733
7000,-8900,0,11322.985472039,-229112358.61077
7000,-1500,0,7158.9105316382,-35959932.044471
7000,-6600,0,9620.8107766446,-172335720.72293
7000,-1800,0,7227.7243998371,-44320431.891227
7000,-1600,0,7180.5292284065,-41779395.127012
7000,-200,0,7002.8565600046,-2256295.6919706
7000,-500,0,7017.8344238091,-10428561.742131
7000,-7400,0,10186.265262597,-188474983.50002
7000,-6300,0,9417.5368329516,-159746281.01962
7000,-9600,0,11881.077392223,-242287263.85687
7000,-3600,0,7871.4674616618,-89041594.925461
7000,-7200,0,10041.912168507,-182069513.72276
7000,-2000,0,7280.1098892805,-53441105.54467
7000,-7900,0,10555.093557141,-201430578.40325
7000,-4400,0,8268.0106434378,-112821118.6124
7000,-6700,0,9689.6852374058,-172335720.72293
7000,-7700,0,10406.248123123,-198412350.65633
7000,-4800,0,8487.6380695692,-125163941.25459
7000,-6900,0,9829.0386101592,-178737103.06733
7000,-4900,0,8544.5889310136,-125163941.25459
7000,-2100,0,7308.2145562374,-53441105.54467
7000,-2700,0,7502.6661927611,-71180053.956459
7000,-5300,0,8780.0911157003,-134876789.91229
7000,-3400,0,7782.0305833375,-89041594.925461
7000,-9400,0,11720.068259187,-242287263.85687
7000,-8600,0,11088.733020503,-218720882.38681
7000,-8700,0,11166.467659918,-222253173.41462
7000,-5000,0,8602.3252670426,-125163941.25459
7000,-4200,0,8163.3326527834,-106525287.73586
7000,-1200,0,7102.1123618259,-32488904.376904
7000,-3900,0,8013.1142510263,-97753781.063839
7000,-9100,0,11480.8536268,-232375845.86514
7000,-9700,0,11962.023240238,-248743026.01531
7000,-4000,0,8062.2577482985,-103686081.07513
7000,-3700,0,7917.701686727,-94834577.576767
7000,-1400,0,7138.6273190299,-35959932.044471
7000,-4700,0,8431.4885992925,-121751739.43626
7000,-6500,0,9552.4865872714,-163266585.37826
7000,-9500,0,11800.423721206,-242287263.85687
7000,-9900,0,12124.768039018,-248743026.01531
7000,-4600,0,8376.1566365488,-112821118.6124
7000,-3100,0,7655.7168181693,-77276715.208219
7000,-3200,0,7696.7525619575,-80054441.000272
7000,-3000,0,7615.7731058639,-77276715.208219
7000,-2800,0,7539.2307299883,-71180053.956459
7000,-700,0,7034.9129347846,-18153587.825184
7000,-7800,0,10480.458005259,-198412350.65633
7000,-4300,0,8215.2297594163,-112821118.6124
7000,-9300,0,11640.017182118,-239222570.56318
7000,-5600,0,8964.373932406,-140907680.58271
7000,-9200,0,11560.276813295,-232375845.86514
7000,-5500,0,8902.2469073824,-140907680.58271
7000,-6200,0,9350.9357820488,-159746281.01962
7000,-7600,0,10332.473082472,-191695135.74711
7000,-8800,0,11244.554237496,-222253173.41462
7000,-8400,0,10934.349546269,-211924007.0134
7000,-3500,0,7826.2379212493,-89041594.925461
7000,-5100,0,8660.8313688699,-130806261.00307
7000,-2600,0,7467.2618810378,-67944670.260312
7000,-7000,0,9899.4949366117,-178737103.06733
7000,-2400,0,7400,-59215346.389234
7000,-600,0,7025.6672281001,-18153587.825184
7000,0,0,7000,-2256295.6919706
7000,-1100,0,7085.9014952227,-26656073.21644
7000,-3800,0,7964.923100696,-94834577.576767
7000,-400,0,7011.4192571832,-9596285.0967349
7000,-4100,0,8112.3362849428,-106525287.73586
7000,-2500,0,7433.0343736593,-61985061.250639
7000,-2300,0,7368.1748079155,-59215346.389234
7000,-4500,0,8321.6584885466,-112821118.6124
7000,-1300,0,7119.691004531,-35959932.044471
7000,-6800,0,9759.0983190047,-172335720.72293
7000,-300,0,7006.4256222413,-9596285.0967349
7000,-5800,0,9090.6545418908,-153508596.34113
7000,-900,0,7057.6199954376,-23772140.55041
7000,-1900,0,7253.2751223154,-50326431.111083
7000,-5900,0,9154.7801721287,-153508596.34113
7000,-10000,0,12206.555615734,-251652827.71223
7000,-7300,0,10113.851887387,-188474983.50002
7000,-6000,0,9219.5444572929,-153508596.34113
7000,-1700,0,7203.4713853808,-41779395.127012
7000,-7500,0,10259.142264342,-191695135.74711
7000,-100,0,7000.7142492749,-2256295.6919706
7000,-8200,0,10781.465577555,-211924007.0134
7000,-5400,0,8840.8144421201,-134876789.91229
7000,-2900,0,7576.9386958058,-71180053.956459
7000,-8000,0,10630.145812735,-201430578.40325
7000,-3300,0,7738.8629655783,-85987512.962059
7000,-1000,0,7071.0678118655,-23772140.55041
7000,-9800,0,12043.25537386,-248743026.01531
7100,-8000,0,10696.261028976,-198412350.65633
7100,-2800,0,7632.1687612369,-71180053.956459
7100,-2700,0,7596.0516059332,-67944670.260312
7100,-2400,0,7494.6647690207,-61985061.250639
7100,-1200,0,7200.6944109579,-32488904.376904
7100,-9900,0,12182.774724996,-252067076.43083
7100,-8800,0,11307.077429646,-218720882.38681
7100,-4800,0,8570.2975444263,-121751739.43626
7100,-2100,0,7404.0529441651,-50326431.111083
7100,-1900,0,7349.8299300052,-50326431.111083
7100,0,0,7100,-2256295.6919706
7100,-5100,0,8741.8533504057,-130806261.00307
7100,-6200,0,9426.0277954184,-159746281.01962
7100,-3600,0,7960.5276207045,-89041594.925461
7100,-7000,0,9970.4563586628,-178737103.06733
7100,-2900,0,7669.4197955256,-71180053.956459
7100,-9300,0,11700.427342623,-239222570.56318
7100,-100,0,7100.7041904307,-2256295.6919706
7100,-6300,0,9492.1019800674,-159746281.01962
7100,-3700,0,8006.2475604992,-94834577.576767
7100,-7500,0,10327.632836231,-191695135.74711
7100,-8100,0,10771.258050943,-211924007.0134
7100,-1100,0,7184.7059786744,-26656073.21644
7100,-8900,0,11385.077953181,-232375845.86514
7100,-9800,0,12101.652779683,-248743026.01531
7100,-6100,0,9360.5555390692,-153508596.34113
7100,-4700,0,8514.6931829632,-121751739.43626
7100,-5200,0,8800.5681634767,-130806261.00307
7100,-3800,0,8052.9497701153,-97753781.063839
7100,-7200,0,10111.874208078,-178737103.06733
7100,-1800,0,7324.616030892,-44320431.891227
7100,-200,0,7102.8163428319,-5985192.0194197
7100,-8700,0,11229.425630904,-218720882.38681
7100,-1300,0,7218.0329730474,-32488904.376904
7100,-9700,0,12020.815280171,-248743026.01531
7100,-1000,0,7170.0767080973,-26656073.21644
7100,-6900,0,9900.5050376231,-178737103.06733
7100,-3000,0,7707.7882690173,-77276715.208219
7100,-9000,0,11463.420083029,-232375845.86514
7100,-3500,0,7915.8069708653,-89041594.925461
7100,-4600,0,8459.9054368237,-116034667.61018
7100,-5300,0,8860.0225733347,-134876789.91229
7100,-6400,0,9558.7656106843,-162484217.99443
7100,-300,0,7106.3352017759,-5985192.0194197
7100,-6000,0,9295.6979296877,-153508596.34113
7100,-8200,0,10846.658471622,-211924007.0134
7100,-7600,0,10400.480758119,-191695135.74711
7100,-3900,0,8100.6172604315,-97753781.063839
7100,-900,0,7156.8149340332,-26656073.21644
7100,-7300,0,10183.319694481,-191695135.74711
7100,-5900,0,9231.4679222754,-149936934.55069
7100,-4000,0,8149.2330927517,-103686081.07513
7100,-8600,0,11152.129841425,-218720882.38681
7100,-9600,0,11940.268003692,-242287263.85687
7100,-9100,0,11542.096863222,-232375845.86514
7100,-4500,0,8405.950273467,-116034667.61018
7100,-5400,0,8920.2017914395,-140907680.58271
7100,-3400,0,7872.1026416073,-85987512.962059
7100,-1700,0,7300.6848993776,-44320431.891227
7100,-6500,0,9626.0064408871,-162484217.99443
7100,-400,0,7111.2586790244,-10428561.742131
7100,-2500,0,7527.2837066235,-61985061.250639
7100,-800,0,7144.9282711585,-18153587.825184
7100,-6800,0,9831.0731865855,-172335720.72293
7100,-4900,0,8626.7027304759,-125163941.25459
7100,-3100,0,7747.2575792986,-80054441.000272
7100,-2200,0,7433.0343736593,-53441105.54467
7100,-1400,0,7236.7119605523,-32488904.376904
7100,-2600,0,7561.0845782864,-67944670.260312
7100,-2300,0,7463.2432628181,-59215346.389234
7100,-8300,0,10922.453936731,-211924007.0134
7100,-7100,0,10040.916292849,-178737103.06733
7100,-5800,0,9167.8787077491,-149936934.55069
7100,-4100,0,8198.7803971079,-103686081.07513
7100,-8500,0,11075.197515169,-218720882.38681
7100,-9500,0,11860.016863394,-242287263.85687
7100,-9200,0,11621.101496846,-232375845.86514
7100,-3300,0,7829.4316524254,-85987512.962059
7100,-4400,0,8352.8438271046,-112821118.6124
7100,-5500,0,8981.0912477271,-140907680.58271
7100,-6600,0,9693.8124595022,-172335720.72293
7100,-700,0,7134.4235926948,-15095959.32684
7100,-7400,0,10255.242561734,-191695135.74711
7100,-5000,0,8683.8931361458,-125163941.25459
7100,-1600,0,7278.0491891715,-44320431.891227
7100,-500,0,7117.5838597097,-15095959.32684
7100,-1500,0,7256.7210226107,-35959932.044471
7100,-7700,0,10473.776778221,-198412350.65633
7100,-5700,0,9104.943712072,-143385793.52935
7100,-2000,0,7376.313442364,-50326431.111083
7100,-4200,0,8249.2423894561,-106525287.73586
7100,-9400,0,11780.067911519,-239222570.56318
7100,-8400,0,10998.636279103,-211924007.0134
7100,-4300,0,8300.6023877789,-112821118.6124
7100,-5600,0,9042.6765949026,-143385793.52935
7100,-600,0,7125.3070109294,-15095959.32684
7100,-10000,0,12264.175471674,-252067076.43083
7100,-7800,0,10547.511554864,-198412350.65633
7100,-7900,0,10621.675950621,-198412350.65633
7100,-6700,0,9762.1718894926,-172335720.72293
7100,-3200,0,7787.810988975,-80054441.000272
7200,-7900,0,10688.779163216,-201688044.55759
7200,-3200,0,7879.0862414369,-80054441.000272
7200,-5600,0,9121.4034007931,-143385793.52935
7200,-600,0,7224.9567472754,-15095959.32684
7200,-9300,0,11761.377470348,-239222570.56318
7200,-4300,0,8386.298349093,-106831876.49304
7200,-8400,0,11063.453348751,-211924007.0134
7200,-4200,0,8335.4663936699,-103686081.07513
7200,-2000,0,7472.6166769078,-50326431.111083
7200,-6700,0,9835.1410767716,-168876244.21495
7200,-5700,0,9183.1367190084,-143385793.52935
7200,-5000,0,8765.8428003244,-130806261.00307
7200,-9400,0,11840.608092493,-239222570.56318
7200,-1500,0,7354.5904032788,-41056127.696157
7200,-500,0,7217.3402303065,-15095959.32684
7200,-7700,0,10541.821474489,-198412350.65633
7200,-1600,0,7375.6355658343,-41056127.696157
7200,-7400,0,10324.727599312,-188265266.67667
7200,-6600,0,9767.2923576598,-168876244.21495
7200,-5500,0,9060.3531939986,-143385793.52935
7200,-4400,0,8438.0092438916,-116034667.61018
7200,-3300,0,7920.2272694665,-85987512.962059
7200,-700,0,7233.9477465627,-17152610.787395
7200,-9200,0,11682.465493208,-232375845.86514
7200,-8300,0,10987.720418722,-211924007.0134
7200,-9500,0,11920.151005755,-239222570.56318
7200,-8500,0,11139.569111954,-218720882.38681
7200,-4100,0,8285.5295545909,-103686081.07513
7200,-400,0,7211.102550928,-10428561.742131
7200,-7100,0,10111.874208078,-181714335.77351
7200,-5800,0,9245.539465061,-149936934.55069
7200,-2300,0,7558.4389922788,-61985061.250639
7200,-2600,0,7655.0636836019,-67944670.260312
7200,-1400,0,7334.8483283569,-35037457.538
7200,-2500,0,7621.6796049165,-61985061.250639
7200,-2200,0,7528.6120898875,-53040043.13848
7200,-3100,0,7839.0050389064,-80054441.000272
7200,-6800,0,9903.534722512,-172335720.72293
7200,-6500,0,9700,-162484217.99443
7200,-5400,0,9000,-140907680.58271
7200,-1700,0,7397.9726952727,-44320431.891227
7200,-3400,0,7962.4116949578,-85987512.962059
7200,-800,0,7244.3081105099,-17152610.787395
7200,-9100,0,11603.878661896,-232375845.86514
7200,-4500,0,8490.5830188509,-116034667.61018
7200,-9600,0,12000,-239222570.56318
7200,-8600,0,11216.059914248,-218720882.38681
7200,-4000,0,8236.5041127896,-103686081.07513
7200,-300,0,7206.2472896786,-5985192.0194197
7200,-8200,0,10912.378292563,-208519823.67604
7200,-5900,0,9308.5981758802,-149936934.55069
7200,-7300,0,10253.29215423,-188265266.67667
7200,-2800,0,7725.2831663312,-67944670.260312
7200,-10000,0,12322.337440599,-252067076.43083
7200,-900,0,7256.0319734687,-23105610.883238
7200,-9000,0,11525.623627379,-232375845.86514
7200,-1300,0,7316.4198895361,-32488904.376904
7200,-3900,0,8188.4064383737,-97753781.063839
7200,-7600,0,10469.001862642,-191695135.74711
7200,-4900,0,8709.1905479212,-121751739.43626
7200,-6400,0,9633.2756630338,-162484217.99443
7200,-5300,0,8940.3579346691,-130806261.00307
7200,-4600,0,8544.0037453175,-116034667.61018
7200,-3500,0,8005.6230238502,-85987512.962059
7200,-6000,0,9372.299611088,-149936934.55069
7200,-3000,0,7800,-80054441.000272
7200,-6900,0,9972.4620831568,-178737103.06733
7200,-9700,0,12080.149005704,-248743026.01531
7200,-200,0,7202.7772421476,-5985192.0194197
7200,-8700,0,11292.918134831,-222268785.55918
7200,-1000,0,7269.1127381545,-26656073.21644
7200,-1800,0,7421.5901261118,-44320431.891227
7200,-7200,0,10182.337649086,-181714335.77351
7200,-3800,0,8141.252974819,-97753781.063839
7200,-5200,0,8881.4413244698,-130806261.00307
7200,-4700,0,8598.2556370464,-121751739.43626
7200,-6100,0,9436.6307546709,-153508596.34113
7200,-8900,0,11447.707194019,-229066679.51837
7200,-9800,0,12160.592090848,-252067076.43083
7200,-8100,0,10837.435120913,-208519823.67604
7200,-1100,0,7283.5430938521,-26656073.21644
7200,-3700,0,8095.0602221355,-97753781.063839
7200,-7500,0,10396.634070698,-191695135.74711
7200,-6300,0,9567.1312314612,-162484217.99443
7200,-100,0,7200.6944109579,-5985192.0194197
7200,-2900,0,7762.08734813,-70833163.076782
7200,-7000,0,10041.912168507,-178737103.06733
7200,-3600,0,8049.8447189992,-88815180.990318
7200,-5100,0,8823.2647019116,-130806261.00307
7200,-6200,0,9501.5788161758,-162484217.99443
7200,-8800,0,11370.136322842,-222268785.55918
7200,-1900,0,7446.4756764526,-50326431.111083
7200,-2100,0,7500,-50326431.111083
7200,-4800,0,8653.3230611136,-121751739.43626
7200,0,0,7200,-2256295.6919706
7200,-9900,0,12241.323457862,-252067076.43083
7200,-1200,0,7299.3150363579,-32488904.376904
7200,-2400,0,7589.4663844041,-61985061.250639
7200,-2700,0,7689.6033707858,-67944670.260312
7200,-7800,0,10615.083607772,-198412350.65633
7200,-8000,0,10762.899237659,-201688044.55759
7300,-7800,0,10683.164325236,-201688044.55759
7300,-2600,0,7749.1935064237,-67944670.260312
7300,-1200,0,7397.9726952727,-35037457.538
7300,-2500,0,7716.2166895442,-61985061.250639
7300,-2400,0,7684.3997813753,-58929697.783335
7300,-2300,0,7653.757247261,-58929697.783335
7300,-2100,0,7596.0516059332,-53040043.13848
7300,-8000,0,10830.050784738,-201688044.55759
7300,-8800,0,11433.722053645,-222268785.55918
7300,-3100,0,7930.9520235593,-76849395.794779
7300,-7100,0,10183.319694481,-181714335.77351
7300,-400,0,7310.9506905737,-6435222.0834639
7300,-6800,0,9976.4723224194,-168876244.21495
7300,-6200,0,9577.5779819326,-159230198.67609
7300,-9500,0,11980.818002123,-239222570.56318
7300,-3600,0,8139.4102980499,-88815180.990318
7300,-6300,0,9642.6137535421,-162484217.99443
7300,-5400,0,9080.1982357215,-140463163.37947
7300,-3700,0,8184.130986244,-94787007.492962
7300,-4400,0,8523.496934944,-112885391.35964
7300,-8300,0,11053.506231056,-208519823.67604
7300,-9900,0,12300.406497348,-252067076.43083
7300,-1700,0,7495.3318805774,-41056127.696157
7300,-1100,0,7382.4115301167,-23105610.883238
7300,-5500,0,9140.0218818119,-143385793.52935
7300,-4500,0,8575.5466298073,-112885391.35964
7300,-4800,0,8736.7041840731,-121751739.43626
7300,-7400,0,10394.71019317,-188265266.67667
7300,-8900,0,11510.864433221,-229066679.51837
7300,-1900,0,7543.2088662584,-50326431.111083
7300,-1600,0,7473.2857566134,-41056127.696157
7300,-6100,0,9513.1487952202,-152924153.75326
7300,-500,0,7317.1032519707,-17152610.787395
7300,-9600,0,12060.265337048,-242619405.23024
7300,-9400,0,11901.680553603,-239222570.56318
7300,-7200,0,10253.29215423,-181714335.77351
7300,-3800,0,8229.823813424,-94787007.492962
7300,-6700,0,9908.5821387321,-168876244.21495
7300,-7000,0,10113.851887387,-181714335.77351
7300,-2000,0,7569.0157880665,-53040043.13848
7300,-5100,0,8905.0547443573,-130761501.17533
7300,-4300,0,8472.3078319901,-106831876.49304
7300,-300,0,7306.1617830431,-6435222.0834639
7300,-1000,0,7368.1748079155,-23105610.883238
7300,-8700,0,11356.936206566,-222268785.55918
7300,-2900,0,7854.9347546622,-76849395.794779
7300,-8200,0,10978.615577567,-208519823.67604
7300,-5600,0,9200.5434622092,-143385793.52935
7300,-2800,0,7818.5676437568,-70833163.076782
7300,-7900,0,10756.39344762,-201688044.55759
7300,-7600,0,10538.026380684,-188265266.67667
7300,-6000,0,9449.3386011932,-152924153.75326
7300,-3500,0,8095.6778592036,-88815180.990318
7300,-6400,0,9708.2439194738,-162484217.99443
7300,-3200,0,7970.5708703957,-80054441.000272
7300,-7500,0,10466.135867645,-188265266.67667
7300,-3900,0,8276.4726786234,-97753781.063839
7300,-600,0,7324.616030892,-17152610.787395
7300,-100,0,7300.6848993776,-6435222.0834639
7300,-1300,0,7414.8499647667,-35037457.538
7300,-9000,0,11588.356225108,-229066679.51837
7300,-4900,0,8792.0418561333,-124927361.18514
7300,-9300,0,11822.859214251,-239222570.56318
7300,-5300,0,9021.0864090751,-134657393.33566
7300,-4200,0,8421.9950130596,-106831876.49304
7300,-900,0,7355.2702193733,-23105610.883238
7300,-8400,0,11128.791488747,-211924007.0134
7300,-9800,0,12220.065466273,-252067076.43083
7300,-8100,0,10904.127658827,-208519823.67604
7300,-5000,0,8848.1636512895,-130761501.17533
7300,-5900,0,9386.1600242059,-149936934.55069
7300,-5700,0,9261.7492948147,-143385793.52935
7300,-3000,0,7892.4014089503,-76849395.794779
7300,-7300,0,10323.759005324,-188265266.67667
7300,-1500,0,7452.5163535547,-41056127.696157
7300,-4600,0,8628.4413424442,-116034667.61018
7300,-8600,0,11280.514172678,-222268785.55918
7300,-2700,0,7783.315488916,-70833163.076782
7300,-6600,0,9841.2397592986,-168876244.21495
7300,-4700,0,8682.1656284593,-121751739.43626
7300,-4000,0,8324.0615086627,-103686081.07513
7300,-3300,0,8011.2421009479,-85987512.962059
7300,-700,0,7333.4848469196,-17152610.787395
7300,-1800,0,7518.6434946738,-44320431.891227
7300,-6900,0,10044.899203078,-178157880.05908
7300,-9100,0,11666.190466472,-229066679.51837
7300,-9200,0,11744.360348695,-232375845.86514
7300,-5200,0,8962.7004859027,-130761501.17533
7300,-9700,0,12140.016474453,-249006005.71789
7300,-4100,0,8372.5742755738,-106831876.49304
7300,-800,0,7343.7047870949,-23105610.883238
7300,-3400,0,8052.9497701153,-88815180.990318
7300,-6500,0,9774.4565066299,-168876244.21495
7300,-8500,0,11204.463396343,-218720882.38681
7300,0,0,7300,-2707676.5062942
7300,-2200,0,7624.3032468548,-58929697.783335
7300,-5800,0,9323.6259041212,-149936934.55069
7300,-200,0,7302.7392121039,-6435222.0834639
7300,-10000,0,12381.033882516,-252067076.43083
7300,-1400,0,7433.0343736593,-35037457.538
7300,-7700,0,10610.372283761,-201688044.55759
7400,-7800,0,10751.744044572,-201688044.55759
7400,-7700,0,10679.419459877,-198036213.16159
7400,-1400,0,7531.2681535051,-35037457.538
7400,-10000,0,12440.257232067,-252067076.43083
7400,-5800,0,9402.1274188345,-149936934.55069
7400,-2200,0,7720.1036262475,-58929697.783335
7400,-200,0,7402.7022093287,-6435222.0834639
7400,-9700,0,12200.409829182,-249006005.71789
7400,-8500,0,11269.871339106,-218666824.86519
7400,-6500,0,9849.365461795,-168876244.21495
7400,-800,0,7443.1176263714,-23105610.883238
7400,-4100,0,8459.9054368237,-106831876.49304
7400,-5200,0,9044.335243676,-130761501.17533
7400,-6900,0,10117.806086302,-178157880.05908
7400,-3300,0,8102.4687595819,-85724583.146502
7400,-9100,0,11729.023829799,-229066679.51837
7400,-9200,0,11806.777714516,-229066679.51837
7400,-3400,0,8143.7092286009,-88815180.990318
7400,-4600,0,8713.2083643168,-112885391.35964
7400,-700,0,7433.0343736593,-17152610.787395
7400,-1800,0,7615.7731058639,-43889957.248708
7400,-4000,0,8411.8963379252,-103898788.60804
7400,-2700,0,7877.1822373232,-70833163.076782
7400,-6600,0,9915.6442049924,-168876244.21495
7400,-4700,0,8766.4131775772,-122507680.60587
7400,-7300,0,10394.71019317,-188265266.67667
7400,-1500,0,7550.4966724051,-41056127.696157
7400,-8600,0,11345.483682946,-222268785.55918
7400,-5700,0,9340.7708461347,-143385793.52935
7400,-8100,0,10971.326264404,-208519823.67604
7400,-3000,0,7984.9859110709,-76849395.794779
7400,-4900,0,8875.2464754507,-124927361.18514
7400,-5900,0,9464.1428560647,-152924153.75326
7400,-8400,0,11194.641575325,-211712183.8424
7400,-1300,0,7513.3215025047,-35037457.538
7400,-900,0,7454.5288248152,-23105610.883238
7400,-4200,0,8508.8189544731,-106831876.49304
7400,-9800,0,12280.065146407,-249006005.71789
7400,-5300,0,9102.1975368589,-134657393.33566
7400,-100,0,7400.6756448314,-2707676.5062942
7400,-9300,0,11884.864324005,-242619405.23024
7400,-9000,0,11651.609330904,-229066679.51837
7400,-2800,0,7912.016177941,-70833163.076782
7400,-600,0,7424.2844773082,-12932075.336804
7400,-3900,0,8364.8072302953,-97787914.327791
7400,-3200,0,8062.2577482985,-79691115.411399
7400,-6400,0,9783.659846908,-162484217.99443
7400,-5000,0,8930.8454247064,-124927361.18514
7400,-6000,0,9526.8042910516,-152924153.75326
7400,-7600,0,10607.544484941,-191331793.52672
7400,-2600,0,7843.468620451,-67676026.383574
7400,-7500,0,10536.128321162,-191331793.52672
7400,-5600,0,9280.0862064961,-140463163.37947
7400,-2900,0,7947.9557120054,-76849395.794779
7400,-7900,0,10824.50922675,-201688044.55759
7400,-3500,0,8185.9635963031,-88815180.990318
7400,-1000,0,7467.2618810378,-25717603.041545
7400,-2000,0,7665.5071586947,-53040043.13848
7400,-5100,0,8987.2131386765,-130761501.17533
7400,-4300,0,8558.6213843118,-106831876.49304
7400,-300,0,7406.0785845142,-6435222.0834639
7400,-8900,0,11574.541027617,-229066679.51837
7400,-3800,0,8318.6537372342,-94787007.492962
7400,-7200,0,10324.727599312,-181714335.77351
7400,-9400,0,11963.277142991,-242619405.23024
7400,-9600,0,12121.056059601,-242619405.23024
7400,-7000,0,10186.265262597,-178157880.05908
7400,-500,0,7416.8726563155,-12932075.336804
7400,-8700,0,11421.471008587,-222268785.55918
7400,-6700,0,9982.4846606444,-171723726.46065
7400,-8200,0,11045.361017187,-208519823.67604
7400,-6100,0,9590.0990610108,-152924153.75326
7400,-1600,0,7570.9972922991,-41056127.696157
7400,-1900,0,7640.0261779656,-49874596.448899
7400,-7400,0,10465.180361561,-188265266.67667
7400,-4500,0,8660.8313688699,-112885391.35964
7400,-1200,0,7496.6659255965,-31823839.833856
7400,-5500,0,9220.0867674876,-140463163.37947
7400,-4800,0,8820.43082848,-124927361.18514
7400,-1700,0,7592.7597090913,-41056127.696157
7400,-1100,0,7481.3100457072,-25717603.041545
7400,-8300,0,11119.802156513,-208519823.67604
7400,-9900,0,12360.016181219,-252067076.43083
7400,-3700,0,8273.4515167492,-94787007.492962
7400,-4400,0,8609.2973000124,-112885391.35964
7400,-6300,0,9718.5389848475,-159230198.67609
7400,-5400,0,9160.785992479,-140463163.37947
7400,-7100,0,10255.242561734,-181714335.77351
7400,-3600,0,8229.2162445764,-88815180.990318
7400,-9500,0,12042.009799033,-242619405.23024
7400,-6800,0,10049.875621121,-171723726.46065
7400,-6200,0,9654.0147089177,-159230198.67609
7400,-400,0,7410.8029254596,-12932075.336804
7400,0,0,7400,-2707676.5062942
7400,-8000,0,10897.70618066,-201688044.55759
7400,-8800,0,11497.825881444,-222268785.55918
7400,-3100,0,8023.0916734137,-76849395.794779
7400,-2100,0,7692.2038454529,-53040043.13848
7400,-2300,0,7749.1935064237,-58929697.783335
7400,-2400,0,7779.4601355107,-58929697.783335
7400,-2500,0,7810.8898340714,-61727576.721546
7500,-7600,0,10677.546534668,-191331793.52672
7500,-2300,0,7844.7434629821,-61727576.721546
7500,-3100,0,8115.4174261094,-79691115.411399
7500,-400,0,7510.6590922502,-12932075.336804
7500,-9500,0,12103.71843691,-242619405.23024
7500,-5400,0,9241.7530804496,-140463163.37947
7500,-7100,0,10327.632836231,-178157880.05908
7500,-4400,0,8695.4010833313,-112885391.35964
7500,-6800,0,10123.734488814,-171723726.46065
7500,-8300,0,11186.59912574,-211712183.8424
7500,-1600,0,7668.7678280151,-43889957.248708
7500,-1700,0,7690.2535718922,-43889957.248708
7500,-5500,0,9300.5376188691,-140463163.37947
7500,-7400,0,10536.128321162,-191331793.52672
7500,-4500,0,8746.427842268,-116185493.10837
7500,-8200,0,11112.605455068,-211712183.8424
7500,-6700,0,10056.83846942,-171723726.46065
7500,-500,0,7516.6481891865,-12932075.336804
7500,-9400,0,12025.389806572,-242619405.23024
7500,-9600,0,12182.364302548,-242619405.23024
7500,-300,0,7505.9976019181,-6435222.0834639
7500,-4300,0,8645.2298986204,-106831876.49304
7500,-2000,0,7762.08734813,-49874596.448899
7500,-7900,0,10893.117092917,-198036213.16159
7500,-5600,0,9360.021367497,-140463163.37947
7500,-2500,0,7905.6941504209,-61727576.721546
7500,-5000,0,9013.87818866,-124927361.18514
7500,-600,0,7523.9617223907,-12932075.336804
7500,-2800,0,8005.6230238502,-70833163.076782
7500,-9300,0,11947.384651044,-238890771.29624
7500,-5300,0,9183.6811791351,-134657393.33566
7500,-3200,0,8154.1400527585,-79691115.411399
7500,-4200,0,8595.9292691366,-106831876.49304
7500,-8400,0,11260.994627474,-211712183.8424
7500,-3000,0,8077.7472107018,-76849395.794779
7500,-1500,0,7648.5292703892,-41056127.696157
7500,-5700,0,9420.1910808645,-144353700.5223
7500,-6600,0,9990.495483208,-171723726.46065
7500,-700,0,7532.5958341066,-12932075.336804
7500,-4600,0,8798.2952894297,-116185493.10837
7500,-9200,0,11869.709347747,-232181284.36466
7500,-3300,0,8193.9001702486,-85724583.146502
7500,-4100,0,8547.5142585432,-103898788.60804
7500,-8500,0,11335.784048755,-218666824.86519
7500,-9700,0,12261.32129911,-249006005.71789
7500,-200,0,7502.6661927611,-2707676.5062942
7500,-1400,0,7629.547824085,-31823839.833856
7500,-5800,0,9481.033698917,-150266905.88584
7500,-6900,0,10191.172650878,-178157880.05908
7500,-7700,0,10748.953437428,-198036213.16159
7500,-2200,0,7816.0092118677,-58929697.783335
7500,-10000,0,12500,-252067076.43083
7500,-6500,0,9924.7166206396,-168464594.9138
7500,-5200,0,9126.3355187063,-134657393.33566
7500,-800,0,7542.5459892532,-25717603.041545
7500,-9100,0,11792.370414806,-232181284.36466
7500,-3400,0,8234.6827504161,-85724583.146502
7500,-4000,0,8500,-103898788.60804
7500,-1800,0,7712.9760793095,-43889957.248708
7500,-8100,0,11039.021695784,-208519823.67604
7500,-2700,0,7971.1981533519,-67676026.383574
7500,-7300,0,10466.135867645,-191331793.52672
7500,-4700,0,8850.9886453435,-122507680.60587
7500,-8600,0,11410.959644132,-218666824.86519
7500,-5900,0,9542.5363504678,-152924153.75326
7500,-1300,0,7611.832893594,-31823839.833856
7500,-900,0,7553.8069872085,-25717603.041545
7500,-9800,0,12340.583454602,-249006005.71789
7500,-100,0,7500.6666370397,-2707676.5062942
7500,-9000,0,11715.37451386,-229066679.51837
7500,-3900,0,8453.4016821632,-97787914.327791
7500,-4900,0,8958.79456177,-122507680.60587
7500,-2900,0,8041.1441971899,-76849395.794779
7500,-6400,0,9859.5131725659,-159230198.67609
7500,-2600,0,7937.8838489865,-67676026.383574
7500,-7500,0,10606.601717798,-191331793.52672
7500,-6000,0,9604.6863561493,-152924153.75326
7500,-3500,0,8276.4726786234,-88815180.990318
7500,-5100,0,9069.7298746986,-130761501.17533
7500,-1000,0,7566.3729752108,-25717603.041545
7500,-8900,0,11638.728452885,-229066679.51837
7500,-3800,0,8407.734534344,-97787914.327791
7500,-7200,0,10396.634070698,-178157880.05908
7500,-7000,0,10259.142264342,-178157880.05908
7500,-6100,0,9667.4712308856,-152924153.75326
7500,-8700,0,11486.513831446,-218666824.86519
7500,-1200,0,7595.3933407033,-31823839.833856
7500,-6300,0,9794.8966303887,-159230198.67609
7500,-4800,0,8904.4932477935,-122507680.60587
7500,-1900,0,7736.9244535539,-49874596.448899
7500,-8000,0,10965.856099731,-201688044.55759
7500,-1100,0,7580.2374632989,-25717603.041545
7500,-3700,0,8363.013810822,-94787007.492962
7500,-9900,0,12420.144926691,-249006005.71789
7500,0,0,7500,-2707676.5062942
7500,-6200,0,9730.8786859153,-159230198.67609
7500,-8800,0,11562.439189029,-222268785.55918
7500,-3600,0,8319.2547743172,-94787007.492962
7500,-2100,0,7788.4529914483,-53040043.13848
7500,-7800,0,10820.813278123,-198036213.16159
7500,-2400,0,7874.642849044,-61727576.721546
7600,-6200,0,9808.1598681914,-159230198.67609
7600,-9400,0,12088.010589009,-238890771.29624
7600,-6800,0,10198.039027186,-171723726.46065
7600,-3100,0,8207.9230015882,-79691115.411399
7600,-9100,0,11856.221995223,-232181284.36466
7600,-2100,0,7884.7954951286,-49874596.448899
7600,-2200,0,7912.016177941,-58607046.512487
7600,-4000,0,8588.3642214336,-103898788.60804
7600,-5900,0,9621.330469327,-150266905.88584
7600,-9500,0,12165.936051122,-242619405.23024
7600,-8300,0,11253.888216968,-211712183.8424
7600,-4600,0,8883.6929258051,-116185493.10837
7600,-1700,0,7787.810988975,-43889957.248708
7600,-800,0,7641.9892698171,-22150044.049088
7600,-900,0,7653.103945459,-22150044.049088
7600,-4400,0,8781.7993600401,-116185493.10837
7600,-5300,0,9265.5275079188,-134657393.33566
7600,-5500,0,9381.3645062965,-140463163.37947
7600,-7200,0,10469.001862642,-180967238.44395
7600,-1600,0,7766.595135579,-43889957.248708
7600,-9000,0,11779.643458102,-232181284.36466
7600,-2700,0,8065.3580205717,-67676026.383574
7600,-8200,0,11180.339887499,-211712183.8424
7600,-6700,0,10131.633629381,-171723726.46065
7600,-7500,0,10677.546534668,-191331793.52672
7600,-7700,0,10818.964830334,-198036213.16159
7600,-3900,0,8542.2479477009,-97787914.327791
7600,-6000,0,9682.9747495282,-152924153.75326
7600,-3200,0,8246.2112512353,-79691115.411399
7600,-400,0,7610.5190361762,-15312089.975117
7600,-300,0,7605.9187479226,-2707676.5062942
7600,-500,0,7616.4296097318,-15312089.975117
7600,-100,0,7600.6578662639,-2707676.5062942
7600,-9800,0,12401.612798342,-249006005.71789
7600,0,0,7600,-2707676.5062942
7600,-5800,0,9560.3347221737,-150266905.88584
7600,-4100,0,8635.3922898731,-103898788.60804
7600,-8400,0,11327.841806805,-211712183.8424
7600,-7900,0,10962.207806824,-198036213.16159
7600,-9900,0,12480.785231707,-251919355.31692
7600,-200,0,7602.6311234993,-2707676.5062942
7600,-9200,0,11933.147112141,-232181284.36466
7600,-3000,0,8170.6792863262,-79691115.411399
7600,-6900,0,10264.989040423,-178157880.05908
7600,-1500,0,7746.6121627457,-40665378.855514
7600,-1000,0,7665.5071586947,-25717603.041545
7600,-6600,0,10065.783625729,-168464594.9138
7600,-3300,0,8285.5295545909,-85724583.146502
7600,-7800,0,10890.36271205,-198036213.16159
7600,-7300,0,10538.026380684,-187588640.74006
7600,-2400,0,7969.9435380685,-61727576.721546
7600,-2600,0,8032.4342512093,-67676026.383574
7600,-8500,0,11402.192771568,-218666824.86519
7600,-2000,0,7858.7530817554,-49874596.448899
7600,-10000,0,12560.254774486,-251919355.31692
7600,-1800,0,7810.2496759067,-43889957.248708
7600,-8900,0,11703.418304068,-232181284.36466
7600,-4300,0,8732.1245982865,-107050029.92103
7600,-3800,0,8497.0583144992,-97787914.327791
7600,-6100,0,9745.2552557642,-152924153.75326
7600,-5600,0,9440.3389769648,-144353700.5223
7600,-1400,0,7727.8716345447,-34609358.811258
7600,-8100,0,11107.204868913,-211712183.8424
7600,-4800,0,8988.8820216977,-122507680.60587
7600,-6500,0,10000.499987501,-168464594.9138
7600,-3400,0,8325.8633185995,-85724583.146502
7600,-700,0,7632.1687612369,-15312089.975117
7600,-9700,0,12322.74320109,-249006005.71789
7600,-5000,0,9097.2523324353,-125972967.0269
7600,-3700,0,8452.8101836017,-97787914.327791
7600,-1100,0,7679.1926658992,-25717603.041545
7600,-8600,0,11476.933388323,-218666824.86519
7600,-4900,0,9042.6765949026,-122507680.60587
7600,-7100,0,10400.480758119,-180967238.44395
7600,-2500,0,8000.6249755878,-61727576.721546
7600,-8800,0,11627.553482999,-218666824.86519
7600,-7600,0,10748.023074036,-191331793.52672
7600,-7400,0,10607.544484941,-191331793.52672
7600,-2800,0,8099.3826925266,-67676026.383574
7600,-600,0,7623.6474210184,-15312089.975117
7600,-5400,0,9323.0896166453,-134657393.33566
7600,-5100,0,9152.5952603619,-132273101.54205
7600,-1300,0,7710.3826104805,-31823839.833856
7600,-4500,0,8832.3269867006,-116185493.10837
7600,-8000,0,11034.491379307,-201150439.13045
7600,-6400,0,9935.7938786994,-162363489.75093
7600,-5700,0,9500,-144353700.5223
7600,-4200,0,8683.317338437,-103898788.60804
7600,-3500,0,8367.1978583036,-85724583.146502
7600,-9300,0,12010.412149464,-238890771.29624
7600,-3600,0,8409.5184166515,-94746633.092975
7600,-6300,0,9871.6766559688,-162363489.75093
7600,-2900,0,8134.4944526381,-76518181.520906
7600,-1200,0,7694.1536246685,-31823839.833856
7600,-9600,0,12244.182292011,-242619405.23024
7600,-8700,0,11552.056094047,-218666824.86519
7600,-4700,0,8935.882720806,-122507680.60587
7600,-5200,0,9208.6915465771,-134657393.33566
7600,-7000,0,10332.473082472,-178157880.05908
7600,-1900,0,7833.9006886736,-49874596.448899
7600,-2300,0,7940.4030124421,-61727576.721546
7700,-1200,0,7792.9455278476,-34609358.811258
7700,-1900,0,7930.9520235593,-49874596.448899
7700,-7000,0,10406.248123123,-180967238.44395
7700,-5200,0,9291.3938674453,-132273101.54205
7700,-8700,0,11618.089343778,-221743374.25535
7700,-4700,0,9021.0864090751,-122507680.60587
7700,-6300,0,9948.8692824863,-162363489.75093
7700,-3600,0,8500,-94746633.092975
7700,-9300,0,12073.938876771,-238890771.29624
7700,-2900,0,8228.0009722897,-76518181.520906
7700,-4500,0,8918.5200566013,-113281468.81996
7700,-3500,0,8458.1321815162,-88655243.240035
7700,-8000,0,11103.60301884,-201150439.13045
7700,-5700,0,9580.187889598,-144353700.5223
7700,-6400,0,10012.49219725,-162363489.75093
7700,-9600,0,12306.502346321,-242619405.23024
7700,-5100,0,9235.7999112151,-132273101.54205
7700,-1300,0,7808.9692021419,-34609358.811258
7700,-2800,0,8193.2899375037,-70516352.208072
7700,-5400,0,9404.7860156412,-134657393.33566
7700,-600,0,7723.3412458599,-15312089.975117
7700,-6200,0,9885.8484714262,-162363489.75093
7700,-4900,0,9126.8833672837,-125972967.0269
7700,-7400,0,10679.419459877,-187588640.74006
7700,-7600,0,10818.964830334,-191331793.52672
7700,-8800,0,11693.160394008,-221743374.25535
7700,-2500,0,8095.6778592036,-61727576.721546
7700,-9700,0,12384.667940643,-251919355.31692
7700,-8600,0,11543.396380615,-218666824.86519
7700,-1100,0,7778.174593052,-25717603.041545
7700,-3700,0,8542.8332536694,-94746633.092975
7700,-3400,0,8417.2442046076,-88655243.240035
7700,-700,0,7731.7527120311,-15312089.975117
7700,-7100,0,10473.776778221,-180967238.44395
7700,-6500,0,10076.705810928,-168464594.9138
7700,-4800,0,9073.5880444287,-122507680.60587
7700,-10000,0,12621.01422232,-251919355.31692
7700,-1400,0,7826.2379212493,-34609358.811258
7700,-8100,0,11175.866856759,-207994074.70807
7700,-5000,0,9180.9585556193,-125972967.0269
7700,-5600,0,9521.0293561148,-144353700.5223
7700,-6100,0,9823.4413521942,-150266905.88584
7700,-3800,0,8586.6174946832,-94746633.092975
7700,-4300,0,8819.2970241397,-107050029.92103
7700,-1800,0,7907.5912893877,-43889957.248708
7700,-8900,0,11768.60229594,-228464193.52268
7700,-8500,0,11469.088891451,-218666824.86519
7700,-2000,0,7955.5012412795,-52638547.493037
7700,-9400,0,12151.131634543,-238890771.29624
7700,-2600,0,8127.1151093115,-67676026.383574
7700,-2400,0,8065.3580205717,-58607046.512487
7700,-2300,0,8036.1682411458,-58607046.512487
7700,-7300,0,10610.372283761,-187588640.74006
7700,-3300,0,8377.3504164503,-85724583.146502
7700,-7800,0,10960.38320498,-201150439.13045
7700,-1000,0,7764.6635471217,-22150044.049088
7700,-6600,0,10141.498903022,-168464594.9138
7700,-6900,0,10339.24562045,-178157880.05908
7700,-4200,0,8770.9748602992,-107050029.92103
7700,-1500,0,7844.7434629821,-40665378.855514
7700,-7900,0,11031.772296417,-201150439.13045
7700,-9200,0,11997.082978791,-232181284.36466
7700,0,0,7700,-2707676.5062942
7700,-3000,0,8263.7763764516,-76518181.520906
7700,-9900,0,12541.929676091,-251919355.31692
7700,-200,0,7702.5969646607,-5756429.9028834
7700,-100,0,7700.6493232714,-5756429.9028834
7700,-8400,0,11395.17441727,-211712183.8424
7700,-4100,0,8723.5313950258,-107050029.92103
7700,-5800,0,9640.0207468656,-150266905.88584
7700,-9800,0,12463.145670335,-251919355.31692
7700,-500,0,7716.2166895442,-15312089.975117
7700,-300,0,7705.8419397234,-5756429.9028834
7700,-5300,0,9347.7269964414,-132273101.54205
7700,-3200,0,8338.4650865732,-79691115.411399
7700,-6000,0,9761.6596949494,-150266905.88584
7700,-3900,0,8631.338250816,-97787914.327791
7700,-7700,0,10889.444430273,-198036213.16159
7700,-400,0,7710.3826104805,-11869785.723624
7700,-7500,0,10748.953437428,-187588640.74006
7700,-6700,0,10206.86043796,-168464594.9138
7700,-2700,0,8159.6568555301,-70516352.208072
7700,-9000,0,11844.407963254,-232181284.36466
7700,-1600,0,7864.4770964127,-40665378.855514
7700,-8200,0,11248.555462814,-207994074.70807
7700,-1700,0,7885.4296014865,-40665378.855514
7700,-5500,0,9462.5577937469,-144353700.5223
7700,-7200,0,10541.821474489,-180967238.44395
7700,-900,0,7752.4189773257,-22150044.049088
7700,-800,0,7741.4468931848,-22150044.049088
7700,-8300,0,11321.660655575,-211712183.8424
7700,-4600,0,8969.3923985965,-116185493.10837
7700,-4400,0,8868.4835231284,-113281468.81996
7700,-6800,0,10272.779565434,-171723726.46065
7700,-5900,0,9700.5154502222,-150266905.88584
7700,-9500,0,12228.65487288,-238890771.29624
7700,-4000,0,8676.981041814,-103898788.60804
7700,-2200,0,8008.1208782086,-58607046.512487
7700,-3100,0,8300.6023877789,-76518181.520906
7700,-9100,0,11920.570456148,-232181284.36466
7700,-2100,0,7981.227975694,-52638547.493037
7800,-3100,0,8393.4498270973,-76518181.520906
7800,-9500,0,12291.867230002,-241590875.37915
7800,-4400,0,8955.4452708952,-113281468.81996
7800,-6800,0,10347.946656221,-170941662.83451
7800,-8300,0,11389.907813499,-207994074.70807
7800,-5500,0,9544.1081301502,-141893530.21498
7800,-1700,0,7983.1071645068,-40665378.855514
7800,-8200,0,11317.243480636,-207994074.70807
7800,-1600,0,7962.4116949578,-40665378.855514
7800,-6700,0,10282.509421343,-168464594.9138
7800,-400,0,7810.2496759067,-11869785.723624
7800,-7700,0,10960.38320498,-201150439.13045
7800,-3200,0,8430.8955633432,-76518181.520906
7800,-500,0,7816.0092118677,-11869785.723624
7800,-200,0,7802.5636812525,-5756429.9028834
7800,-100,0,7800.6409993026,-3094375.4880325
7800,-3000,0,8357.0329663105,-76518181.520906
7800,-8400,0,11462.983904726,-207994074.70807
7800,0,0,7800,-3094375.4880325
7800,-1500,0,7942.9213769242,-40665378.855514
7800,-6600,0,10217.631819556,-168464594.9138
7800,-7300,0,10683.164325236,-187588640.74006
7800,-3300,0,8469.3565280959,-88655243.240035
7800,-9400,0,12214.745187682,-238890771.29624
7800,-2500,0,8190.8485518901,-61411624.040176
7800,-2200,0,8104.3198357419,-58607046.512487
7800,-2600,0,8221.9219164378,-70516352.208072
7800,-6900,0,10413.932974626,-177010373.12625
7800,-8500,0,11536.463929645,-221743374.25535
7800,-4300,0,8906.7390216622,-107050029.92103
7800,-1800,0,8004.9984384758,-43486030.459741
7800,-5000,0,9264.9878575204,-125972967.0269
7800,-5600,0,9602.0831073262,-144353700.5223
7800,-8100,0,11244.998888395,-207994074.70807
7800,-1400,0,7924.6451024636,-34609358.811258
7800,-6500,0,10153.324578679,-168464594.9138
7800,-3400,0,8508.8189544731,-88655243.240035
7800,-8600,0,11610.34021896,-221743374.25535
7800,-7400,0,10751.744044572,-187588640.74006
7800,-4900,0,9211.4059730315,-125972967.0269
7800,-5400,0,9486.8329805051,-135622962.64949
7800,-600,0,7823.0428862432,-11869785.723624
7800,-1300,0,7907.5912893877,-34609358.811258
7800,-6400,0,10089.598604504,-162363489.75093
7800,-3500,0,8549.2689745966,-88655243.240035
7800,-4500,0,9004.9986118822,-113281468.81996
7800,-2900,0,8321.6584885466,-76518181.520906
7800,-9300,0,12137.956994486,-238890771.29624
7800,-6300,0,10026.464980241,-162363489.75093
7800,-8700,0,11684.60525649,-221743374.25535
7800,-4200,0,8858.89383614,-107050029.92103
7800,-7000,0,10480.458005259,-180967238.44395
7800,-1200,0,7891.7678627795,-31018964.842553
7800,-5200,0,9374.4333162064,-132273101.54205
7800,-1900,0,8028.0757345705,-49481016.044125
7800,-4700,0,9106.5910196956,-122868328.90779
7800,-8000,0,11173.182178771,-201150439.13045
7800,-3600,0,8590.6926379658,-94746633.092975
7800,-5700,0,9660.7453128628,-144353700.5223
7800,-5100,0,9319.3347402054,-132273101.54205
7800,-9600,0,12369.316876853,-241590875.37915
7800,-2800,0,8287.3397420403,-70516352.208072
7800,-6200,0,9963.9349656649,-159878241.96584
7800,-7600,0,10890.36271205,-190529057.60633
7800,-8800,0,11759.251676871,-221743374.25535
7800,-9700,0,12447.088012865,-248223156.7578
7800,-1100,0,7877.1822373232,-24662663.186647
7800,-3700,0,8633.0759292387,-94746633.092975
7800,-700,0,7831.3472659562,-15312089.975117
7800,-7100,0,10547.511554864,-180967238.44395
7800,-10000,0,12682.27108999,-251919355.31692
7800,-6100,0,9902.0199959402,-154086348.85585
7800,-8900,0,11834.272263219,-228464193.52268
7800,-9900,0,12603.57092256,-251919355.31692
7800,-2400,0,8160.8823052413,-58607046.512487
7800,-2000,0,8052.328855679,-52638547.493037
7800,-2300,0,8132.0354155648,-58607046.512487
7800,-1000,0,7863.841300535,-24662663.186647
7800,-7800,0,11030.86578651,-201150439.13045
7800,-3800,0,8676.4047853935,-94746633.092975
7800,-7900,0,11101.801655587,-201150439.13045
7800,-9200,0,12061.509026652,-232181284.36466
7800,-4100,0,8811.9237400241,-107050029.92103
7800,-300,0,7805.7670987546,-5756429.9028834
7800,-9800,0,12525.174649481,-251919355.31692
7800,-5800,0,9720.0823041783,-150266905.88584
7800,-5300,0,9430.2704096966,-132273101.54205
7800,-6000,0,9840.731680114,-150266905.88584
7800,-2700,0,8254.0898953186,-70516352.208072
7800,-7500,0,10820.813278123,-187588640.74006
7800,-3900,0,8720.6651122492,-94746633.092975
7800,-9000,0,11909.659944768,-228464193.52268
7800,-4800,0,9158.6025134842,-125972967.0269
7800,-7200,0,10615.083607772,-180967238.44395
7800,-900,0,7851.7513969814,-22150044.049088
7800,-800,0,7840.9183135651,-22150044.049088
7800,-5900,0,9780.0817992489,-150266905.88584
7800,-4600,0,9055.3851381374,-113281468.81996
7800,-4000,0,8765.8428003244,-107050029.92103
7800,-9100,0,11985.407794481,-228464193.52268
7800,-2100,0,8077.7472107018,-52638547.493037
7900,-4600,0,9141.6628684283,-116502310.72048
7900,-2200,0,8200.6097334284,-58607046.512487
7900,-1900,0,8125.2692263088,-49481016.044125
7900,-9100,0,12050.726119201,-228464193.52268
7900,-7000,0,10555.093557141,-177010373.12625
7900,-4000,0,8854.9421229052,-103804844.69979
7900,-5900,0,9860.0202839548,-154086348.85585
7900,-2100,0,8174.3501270743,-52638547.493037
7900,-2900,0,8415.4619599877,-76518181.520906
7900,-800,0,7940.4030124421,-24662663.186647
7900,-4900,0,9296.2357973537,-122868328.90779
7900,-900,0,7951.1005527537,-24662663.186647
7900,-4500,0,9091.7545061446,-116502310.72048
7900,-5400,0,9569.2214939356,-135622962.64949
7900,-4800,0,9243.9169187093,-122868328.90779
7900,-8100,0,11314.592347937,-207994074.70807
7900,-9000,0,11975.391434104,-228464193.52268
7900,-100,0,7900.6328860415,-3094375.4880325
7900,-8000,0,11243.22017929,-201150439.13045
7900,-7200,0,10688.779163216,-180967238.44395
7900,-3900,0,8810.2213366067,-97613537.820588
7900,-7500,0,10893.117092917,-190529057.60633
7900,-1800,0,8102.4687595819,-43486030.459741
7900,-6000,0,9920.1814499534,-154086348.85585
7900,-6900,0,10489.041900955,-177010373.12625
7900,-2600,0,8316.8503653727,-67376961.056288
7900,-2700,0,8348.6525858967,-67376961.056288
7900,-9600,0,12432.618388739,-241590875.37915
7900,-5800,0,9800.5101908013,-144353700.5223
7900,-9800,0,12587.692401707,-248223156.7578
7900,-4100,0,8900.5617800227,-103804844.69979
7900,-5300,0,9513.1487952202,-135622962.64949
7900,-7300,0,10756.39344762,-187588640.74006
7900,-3000,0,8450.4437753292,-76518181.520906
7900,-9200,0,12126.417442922,-228464193.52268
7900,-5000,0,9349.3315269061,-125972967.0269
7900,-400,0,7910.120100226,-11869785.723624
7900,-3800,0,8766.4131775772,-97613537.820588
7900,-8200,0,11386.395390992,-207994074.70807
7900,-2300,0,8228.0009722897,-61411624.040176
7900,-1000,0,7963.0396206474,-24662663.186647
7900,-1700,0,8080.8415403348,-43486030.459741
7900,-2400,0,8256.5125809872,-61411624.040176
7900,-9900,0,12665.701717631,-251919355.31692
7900,-6800,0,10423.531071571,-170941662.83451
7900,-8900,0,11900.42016065,-228464193.52268
7900,-3100,0,8486.4598037108,-79457905.779811
7900,-6100,0,9980.9819156233,-154086348.85585
7900,-9500,0,12355.565547558,-241590875.37915
7900,-4400,0,9042.6765949026,-113281468.81996
7900,-8300,0,11458.621208505,-211179423.10227
7900,-5500,0,9626.0064408871,-141893530.21498
7900,-700,0,7930.9520235593,-14945423.995678
7900,-2000,0,8149.2330927517,-49481016.044125
7900,-3700,0,8723.5313950258,-94746633.092975
7900,-1100,0,7976.2146410437,-31018964.842553
7900,-1600,0,8060.3970125547,-43486030.459741
7900,-6700,0,10358.571330063,-170941662.83451
7900,-8800,0,11825.819210524,-221743374.25535
7900,-7600,0,10962.207806824,-190529057.60633
7900,-7700,0,11031.772296417,-197384073.46126
7900,-6200,0,10042.410069301,-159878241.96584
7900,-3200,0,8523.496934944,-79457905.779811
7900,-5100,0,9403.1909477581,-132273101.54205
7900,-500,0,7915.8069708653,-11869785.723624
7900,-200,0,7902.5312400521,-3094375.4880325
7900,-5700,0,9741.663102366,-144353700.5223
7900,-8400,0,11531.261856362,-211179423.10227
7900,-3600,0,8681.5897161753,-94746633.092975
7900,-1500,0,8041.1441971899,-40665378.855514
7900,-4700,0,9192.3881554251,-122868328.90779
7900,-1200,0,7990.6195003892,-31018964.842553
7900,-6600,0,10294.173109094,-170941662.83451
7900,-5200,0,9457.8010129205,-135622962.64949
7900,-4200,0,8947.0665583754,-107050029.92103
7900,-2800,0,8381.5273071201,-70516352.208072
7900,-3300,0,8561.5419172016,-85563093.713307
7900,-8700,0,11751.595636338,-221743374.25535
7900,-9700,0,12509.996003197,-248223156.7578
7900,-7900,0,11172.287142747,-201150439.13045
7900,0,0,7900,-3094375.4880325
7900,-10000,0,12744.018204632,-251919355.31692
7900,-6300,0,10104.454463255,-159878241.96584
7900,-7100,0,10621.675950621,-180967238.44395
7900,-9300,0,12202.458768625,-241590875.37915
7900,-9400,0,12278.843593759,-241590875.37915
7900,-2500,0,8286.1329943466,-61411624.040176
7900,-3500,0,8640.6018308912,-88655243.240035
7900,-6400,0,10167.103815738,-159878241.96584
7900,-1300,0,8006.2475604992,-31018964.842553
7900,-4300,0,8994.4427287075,-107050029.92103
7900,-8500,0,11604.309544303,-217975492.3865
7900,-300,0,7905.6941504209,-5756429.9028834
7900,-5600,0,9683.491106001,-141893530.21498
7900,-600,0,7922.7520471109,-11869785.723624
7900,-1400,0,8023.0916734137,-34609358.811258
7900,-7400,0,10824.50922675,-190529057.60633
7900,-6500,0,10230.347012687,-168464594.9138
7900,-8600,0,11677.756633875,-221743374.25535
7900,-3400,0,8600.5813756978,-85563093.713307
7900,-7800,0,11101.801655587,-197384073.46126
8000,-5600,0,9765.244492587,-141893530.21498
8000,-3400,0,8692.5255248403,-85563093.713307
8000,-6400,0,10244.998779893,-159878241.96584
8000,-8600,0,11745.637488021,-217975492.3865
8000,-6500,0,10307.764064044,-167972634.58487
8000,-7400,0,10897.70618066,-190529057.60633
8000,-1400,0,8121.5762016988,-33929141.180947
8000,-300,0,8005.6230238502,-3094375.4880325
8000,-8500,0,11672.617529929,-217975492.3865
8000,-600,0,8022.4684480526,-14945423.995678
8000,-2200,0,8296.9874050766,-58238124.528375
8000,-1300,0,8104.9367671809,-31018964.842553
8000,-4300,0,9082.4005637276,-103804844.69979
8000,-3500,0,8732.1245982865,-85563093.713307
8000,-9300,0,12267.436570042,-237238879.58773
8000,-9400,0,12343.419299368,-241590875.37915
8000,0,0,8000,-3094375.4880325
8000,-7100,0,10696.261028976,-177010373.12625
8000,-6300,0,10182.828683622,-159878241.96584
8000,-5200,0,9541.4883535013,-135622962.64949
8000,-7900,0,11243.22017929,-197384073.46126
8000,-7800,0,11173.182178771,-197384073.46126
8000,-9700,0,12573.384588089,-248223156.7578
8000,-3300,0,8653.900854528,-85563093.713307
8000,-8700,0,11819.052415486,-217975492.3865
8000,-4200,0,9035.4855984612,-103804844.69979
8000,-2800,0,8475.8480401668,-67376961.056288
8000,-2500,0,8381.5273071201,-61411624.040176
8000,-1200,0,8089.4993664627,-31018964.842553
8000,-6600,0,10371.113729971,-170941662.83451
8000,-4700,0,9278.4697014109,-122868328.90779
8000,-1500,0,8139.4102980499,-40346454.969238
8000,-8400,0,11600,-211179423.10227
8000,-3600,0,8772.6848797845,-94454679.039555
8000,-5700,0,9822.9323524088,-141893530.21498
8000,-200,0,8002.499609497,-3094375.4880325
8000,-500,0,8015.6097709407,-14945423.995678
8000,-5100,0,9487.3600121425,-135622962.64949
8000,-3200,0,8616.2636914152,-79457905.779811
8000,-6200,0,10121.264743104,-159878241.96584
8000,-7600,0,11034.491379307,-190529057.60633
8000,-7700,0,11103.60301884,-197384073.46126
8000,-8800,0,11892.854997855,-221743374.25535
8000,-6700,0,10435.037134577,-170941662.83451
8000,-1100,0,8075.270893289,-31018964.842553
8000,-1600,0,8158.4312217485,-43486030.459741
8000,-3700,0,8814.1930997681,-97613537.820588
8000,-5500,0,9708.2439194738,-141893530.21498
8000,-700,0,8030.5666051655,-14945423.995678
8000,-8300,0,11527.792503337,-211179423.10227
8000,-9900,0,12728.314892396,-248223156.7578
8000,-2000,0,8246.2112512353,-49481016.044125
8000,-4400,0,9130.1697684107,-116502310.72048
8000,-6100,0,10060.318086423,-154086348.85585
8000,-9500,0,12419.742348374,-241590875.37915
8000,-3100,0,8579.6270315207,-79457905.779811
8000,-2400,0,8352.2452071284,-61411624.040176
8000,-8900,0,11967.038062946,-228464193.52268
8000,-6800,0,10499.523798725,-170941662.83451
8000,-1000,0,8062.2577482985,-24662663.186647
8000,-1700,0,8178.6306922369,-43486030.459741
8000,-8200,0,11456.002793296,-211179423.10227
8000,-2300,0,8324.0615086627,-61411624.040176
8000,-400,0,8009.9937578003,-14945423.995678
8000,-3800,0,8856.6359301938,-97613537.820588
8000,-5000,0,9433.9811320566,-122868328.90779
8000,-9200,0,12191.800523303,-237238879.58773
8000,-4600,0,9228.2175960475,-116502310.72048
8000,-3000,0,8544.0037453175,-79457905.779811
8000,-4100,0,8989.4382471876,-103804844.69979
8000,-7300,0,10830.050784738,-190529057.60633
8000,-5300,0,9596.3534741067,-135622962.64949
8000,-9600,0,12496.399481451,-241590875.37915
8000,-2700,0,8443.3405711247,-67376961.056288
8000,-5800,0,9881.2954616285,-145422644.32772
8000,-6000,0,10000,-154086348.85585
8000,-6900,0,10564.563407922,-177010373.12625
8000,-10000,0,12806.248474866,-251919355.31692
8000,-9800,0,12650.691680695,-248223156.7578
8000,-7200,0,10762.899237659,-179689269.95555
8000,-8000,0,11313.708498985,-201150439.13045
8000,-1800,0,8200,-43486030.459741
8000,-7500,0,10965.856099731,-190529057.60633
8000,-8100,0,11384.638773365,-211179423.10227
8000,-9000,0,12041.594578792,-230809460.92992
8000,-100,0,8000.6249755878,-3094375.4880325
8000,-5400,0,9651.9428096109,-135622962.64949
8000,-4800,0,9329.5230317525,-122868328.90779
8000,-900,0,8050.4658250315,-24662663.186647
8000,-4500,0,9178.7798753429,-116502310.72048
8000,-3900,0,8900,-97613537.820588
8000,-4900,0,9381.3645062965,-122868328.90779
8000,-2900,0,8509.4065598019,-79457905.779811
8000,-800,0,8039.9004968967,-20918765.623401
8000,-2100,0,8271.0337927009,-49481016.044125
8000,-5900,0,9940.3219263764,-154086348.85585
8000,-2600,0,8411.8963379252,-67376961.056288
8000,-4000,0,8944.2719099992,-103804844.69979
8000,-7000,0,10630.145812735,-177010373.12625
8000,-9100,0,12116.517651537,-230809460.92992
8000,-1900,0,8222.5300242687,-49481016.044125
8100,-4900,0,9466.7840368311,-126221587.52108
8100,-1800,0,8297.5900115636,-43486030.459741
8100,-4200,0,9124.1437954473,-106939511.64321
8100,-1700,0,8276.4726786234,-43486030.459741
8100,-9000,0,12108.261642366,-230809460.92992
8100,-6800,0,10575.916035975,-177010373.12625
8100,-8700,0,11886.967653695,-217975492.3865
8100,-7500,0,11039.021695784,-190529057.60633
8100,-7800,0,11244.998888395,-197384073.46126
8100,-7900,0,11314.592347937,-200443901.89552
8100,-5200,0,9625.4870006665,-132674028.49206
8100,-7200,0,10837.435120913,-186584724.54131
8100,-9800,0,12714.165328483,-248223156.7578
8100,-6300,0,10261.578825892,-159878241.96584
8100,-3100,0,8672.9464428186,-79457905.779811
8100,-7000,0,10705.606008069,-179689269.95555
8100,-6000,0,10080.178569847,-151701567.66103
8100,-8200,0,11526.05743522,-211179423.10227
8100,-2600,0,8507.0558949615,-67376961.056288
8100,-1200,0,8188.4064383737,-31018964.842553
8100,-9300,0,12332.882874657,-237238879.58773
8100,-9500,0,12484.390253432,-241590875.37915
8100,-2100,0,8367.7954085888,-52270822.681979
8100,-5800,0,9962.4294225856,-145422644.32772
8100,-3600,0,8863.9720216165,-94454679.039555
8100,-4800,0,9415.4128958851,-122868328.90779
8100,-2900,0,8603.487664895,-76288637.262796
8100,-2700,0,8538.1496824546,-70207270.723191
8100,-4400,0,9217.917335277,-113404126.52222
8100,-5700,0,9904.5444115315,-145422644.32772
8100,-5300,0,9679.8760322641,-135622962.64949
8100,-4100,0,9078.5461391128,-103804844.69979
8100,-900,0,8149.8466243237,-20918765.623401
8100,-3500,0,8823.8313673823,-88490420.458309
8100,-1900,0,8319.8557679806,-49481016.044125
8100,-5100,0,9571.8336801263,-132674028.49206
8100,-8300,0,11597.413504743,-211179423.10227
8100,-4500,0,9266.0671268883,-113404126.52222
8100,-9100,0,12182.774724996,-230809460.92992
8100,-4600,0,9315.0415994777,-116502310.72048
8100,-5500,0,9790.8120194395,-141893530.21498
8100,-4000,0,9033.8253248555,-103804844.69979
8100,-1300,0,8203.6577207975,-33929141.180947
8100,-5000,0,9518.9285111298,-126221587.52108
8100,-400,0,8109.8705291762,-12044851.647789
8100,-600,0,8122.1918224085,-14945423.995678
8100,-300,0,8105.5536516638,-6295270.0760416
8100,-7400,0,10971.326264404,-190529057.60633
8100,-1600,0,8256.5125809872,-40346454.969238
8100,-6700,0,10511.898020814,-170941662.83451
8100,-9200,0,12257.650672131,-237238879.58773
8100,-7600,0,11107.204868913,-197384073.46126
8100,-3900,0,8989.994438263,-97613537.820588
8100,-8600,0,11813.974775663,-217975492.3865
8100,-6400,0,10323.274674249,-162999934.72487
8100,-7700,0,11175.866856759,-197384073.46126
8100,-3200,0,8709.1905479212,-79457905.779811
8100,-6200,0,10200.4901843,-159878241.96584
8100,-3800,0,8947.0665583754,-97613537.820588
8100,-2300,0,8420.2137740084,-58238124.528375
8100,-8800,0,11960.351165413,-221141679.41159
8100,-5900,0,10020.977996184,-151701567.66103
8100,-1000,0,8161.4949610963,-24662663.186647
8100,-100,0,8100.6172604315,-3094375.4880325
8100,-500,0,8115.4174261094,-12044851.647789
8100,-5600,0,9847.334664771,-141893530.21498
8100,-200,0,8102.4687595819,-6295270.0760416
8100,-8400,0,11669.190203266,-211179423.10227
8100,-5400,0,9734.9884437528,-135622962.64949
8100,-8900,0,12034.118164618,-230809460.92992
8100,-2400,0,8448.0767041972,-61411624.040176
8100,-3400,0,8784.645695758,-85563093.713307
8100,-1100,0,8174.3501270743,-31018964.842553
8100,-6500,0,10385.566907974,-167972634.58487
8100,-3700,0,8905.0547443573,-94454679.039555
8100,-3000,0,8637.7080293328,-76288637.262796
8100,-1400,0,8220.0973230248,-33929141.180947
8100,-2000,0,8343.2607534465,-52270822.681979
8100,-700,0,8130.1906496711,-20918765.623401
8100,-1500,0,8237.7181306476,-40346454.969238
8100,-8500,0,11741.3798167,-217975492.3865
8100,-8100,0,11455.129855222,-207394272.92223
8100,-7300,0,10904.127658827,-186584724.54131
8100,-9600,0,12560.652849275,-248223156.7578
8100,-6100,0,10140.019723847,-154086348.85585
8100,-2200,0,8393.4498270973,-58238124.528375
8100,-6900,0,10640.488710581,-177010373.12625
8100,-6600,0,10448.444860361,-167972634.58487
8100,-9900,0,12791.403363197,-251286181.90962
8100,-4300,0,9170.6052144883,-106939511.64321
8100,-2500,0,8477.0277810091,-61411624.040176
8100,-2800,0,8570.2975444263,-70207270.723191
8100,-9700,0,12637.246535539,-248223156.7578
8100,-3300,0,8746.427842268,-85563093.713307
8100,0,0,8100,-3094375.4880325
8100,-800,0,8139.4102980499,-20918765.623401
8100,-4700,0,9364.8278147545,-122868328.90779
8100,-10000,0,12868.954891521,-251286181.90962
8100,-7100,0,10771.258050943,-179689269.95555
8100,-9400,0,12408.464852672,-237238879.58773
8100,-8000,0,11384.638773365,-200443901.89552
8200,-4900,0,9552.4865872714,-126221587.52108
8200,-9400,0,12473.97290361,-237238879.58773
8200,-7100,0,10846.658471622,-179689269.95555
8200,-2700,0,8633.0759292387,-70207270.723191
8200,-3300,0,8839.117603019,-88490420.458309
8200,-4000,0,9123.5957823656,-106939511.64321
8200,0,0,8200,-3240272.6709772
8200,-8000,0,11456.002793296,-200443901.89552
8200,-800,0,8238.9319696184,-20918765.623401
8200,-4300,0,9259.0496272566,-106939511.64321
8200,-2500,0,8572.6308680591,-61156461.044214
8200,-2800,0,8664.8716089738,-70207270.723191
8200,-9900,0,12854.960132182,-251286181.90962
8200,-6900,0,10716.809226631,-179689269.95555
8200,-6500,0,10463.746938836,-167972634.58487
8200,-6600,0,10526.157893553,-167972634.58487
8200,-6100,0,10220.078277587,-151701567.66103
8200,-2200,0,8489.9941107165,-58238124.528375
8200,-700,0,8229.823813424,-20918765.623401
8200,-9600,0,12625.371281669,-248223156.7578
8200,-8100,0,11526.05743522,-207394272.92223
8200,-7300,0,10978.615577567,-186584724.54131
8200,-8500,0,11810.588469674,-217975492.3865
8200,-1500,0,8336.066218547,-40346454.969238
8200,-1400,0,8318.6537372342,-33929141.180947
8200,-3700,0,8996.1102705558,-94454679.039555
8200,-2000,0,8440.3791384037,-52270822.681979
8200,-2400,0,8544.0037453175,-58238124.528375
8200,-3400,0,8876.9364084689,-88490420.458309
8200,-5400,0,9818.3501669069,-132674028.49206
8200,-8400,0,11738.824472663,-211179423.10227
8200,-1100,0,8273.4515167492,-33929141.180947
8200,-8900,0,12101.652779683,-227260214.80995
8200,-9700,0,12701.574705524,-251286181.90962
8200,-500,0,8215.2297594163,-12044851.647789
8200,-5600,0,9929.7532698451,-145422644.32772
8200,-100,0,8200.6097334284,-6295270.0760416
8200,-5900,0,10101.98000394,-151701567.66103
8200,-4800,0,9501.5788161758,-126221587.52108
8200,-200,0,8202.438661764,-6295270.0760416
8200,-9200,0,12323.960402403,-237238879.58773
8200,-1000,0,8260.7505712254,-20918765.623401
8200,-8800,0,12028.299963004,-221141679.41159
8200,-4700,0,9451.4549144563,-122868328.90779
8200,-2300,0,8516.4546614187,-58238124.528375
8200,-3000,0,8731.5519811772,-76288637.262796
8200,-3800,0,9037.698822156,-94454679.039555
8200,-3200,0,8802.2724338662,-76288637.262796
8200,-6200,0,10280.077820717,-159878241.96584
8200,-6400,0,10401.922899157,-162999934.72487
8200,-3900,0,9080.1982357215,-94454679.039555
8200,-8600,0,11882.76062201,-221141679.41159
8200,-7600,0,11180.339887499,-197384073.46126
8200,-1800,0,8395.2367447261,-43300039.840253
8200,-6700,0,10589.145385724,-167972634.58487
8200,-7700,0,11248.555462814,-200443901.89552
8200,-300,0,8205.4859697644,-6295270.0760416
8200,-600,0,8221.9219164378,-12044851.647789
8200,-400,0,8209.7503007095,-12044851.647789
8200,-1600,0,8354.6394296822,-40346454.969238
8200,-5500,0,9873.7024463977,-145422644.32772
8200,-1300,0,8302.4092888751,-33929141.180947
8200,-5000,0,9604.1657628344,-126221587.52108
8200,-4600,0,9402.1274188345,-113404126.52222
8200,-1900,0,8417.2442046076,-52270822.681979
8200,-5300,0,9763.7083119069,-132674028.49206
8200,-8300,0,11667.476162393,-211179423.10227
8200,-4500,0,9353.6089291781,-113404126.52222
8200,-7400,0,11045.361017187,-186584724.54131
8200,-4100,0,9167.8787077491,-106939511.64321
8200,-9100,0,12249.489785293,-230809460.92992
8200,-900,0,8249.2423894561,-20918765.623401
8200,-3500,0,8915.716460274,-88490420.458309
8200,-5700,0,9986.4908751773,-145422644.32772
8200,-5100,0,9656.603957914,-132674028.49206
8200,-4400,0,9305.9120993055,-113404126.52222
8200,-2900,0,8697.7008456258,-76288637.262796
8200,-3600,0,8955.4452708952,-94454679.039555
8200,-2100,0,8464.6323015238,-52270822.681979
8200,-5800,0,10043.903623592,-145422644.32772
8200,-9300,0,12398.79026357,-237238879.58773
8200,-1200,0,8287.3397420403,-33929141.180947
8200,-8200,0,11596.551211459,-207394272.92223
8200,-9500,0,12549.501982151,-241590875.37915
8200,-6000,0,10160.708636704,-151701567.66103
8200,-6300,0,10340.696301507,-162999934.72487
8200,-3100,0,8766.4131775772,-76288637.262796
8200,-7000,0,10781.465577555,-179689269.95555
8200,-7900,0,11386.395390992,-200443901.89552
8200,-9800,0,12778.106275971,-251286181.90962
8200,-10000,0,12932.130528262,-251286181.90962
8200,-5200,0,9709.7888751507,-132674028.49206
8200,-7800,0,11317.243480636,-200443901.89552
8200,-8700,0,11955.333537798,-221141679.41159
8200,-6800,0,10652.699188469,-177010373.12625
8200,-7500,0,11112.605455068,-186584724.54131
8200,-7200,0,10912.378292563,-186584724.54131
8200,-2600,0,8602.3252670426,-70207270.723191
8200,-9000,0,12175.38500418,-230809460.92992
8200,-4200,0,9213.0342450248,-106939511.64321
8200,-1700,0,8374.3656476177,-40346454.969238
8300,-1600,0,8452.8101836017,-40346454.969238
8300,-4500,0,9441.3982015377,-113404126.52222
8300,-1500,0,8434.4531535838,-40346454.969238
8300,-1400,0,8417.2442046076,-33929141.180947
8300,-7200,0,10987.720418722,-186584724.54131
8300,-9600,0,12690.547663517,-248542135.52042
8300,-9000,0,12242.957159118,-227260214.80995
8300,-7800,0,11389.907813499,-200443901.89552
8300,-2400,0,8640.0231481171,-61156461.044214
8300,-3000,0,8825.5311454892,-76288637.262796
8300,-2000,0,8537.5640553966,-49235743.774192
8300,-6800,0,10729.864864014,-175342173.94079
8300,-7300,0,11053.506231056,-186584724.54131
8300,-6400,0,10480.935072788,-162999934.72487
8300,-2600,0,8697.7008456258,-67164879.522495
8300,-4200,0,9302.1502890461,-106939511.64321
8300,-6200,0,10360.019305001,-155528581.38756
8300,-2200,0,8586.6174946832,-58238124.528375
8300,-9700,0,12766.362050326,-251286181.90962
8300,-10000,0,12995.768542106,-251286181.90962
8300,-8400,0,11808.894952535,-210630073.32071
8300,-9800,0,12842.507543311,-251286181.90962
8300,-7500,0,11186.59912574,-189579359.98953
8300,-2100,0,8561.5419172016,-52270822.681979
8300,-6600,0,10604.244433245,-167972634.58487
8300,-8900,0,12169.634341261,-227260214.80995
8300,-3100,0,8860.0225733347,-79866608.849105
8300,-6900,0,10793.516572461,-175342173.94079
8300,-2700,0,8728.1154896117,-70207270.723191
8300,-2800,0,8759.5661993046,-70207270.723191
8300,-8700,0,12024.14238106,-221141679.41159
8300,-8600,0,11951.987282456,-221141679.41159
8300,-300,0,8305.4199171384,-6295270.0760416
8300,-3700,0,9087.3538502691,-94454679.039555
8300,-6000,0,10241.581909061,-151701567.66103
8300,-1800,0,8492.9382430346,-43300039.840253
8300,-9500,0,12615.070352558,-237407986.98486
8300,-8200,0,11667.476162393,-207394272.92223
8300,-9200,0,12390.722335683,-237238879.58773
8300,-2500,0,8668.3331731077,-61156461.044214
8300,-8500,0,11880.235687898,-221141679.41159
8300,-500,0,8315.046602395,-12044851.647789
8300,-5200,0,9794.3861471764,-132674028.49206
8300,-7600,0,11253.888216968,-196580810.54891
8300,-7900,0,11458.621208505,-200443901.89552
8300,-8000,0,11527.792503337,-207394272.92223
8300,-7000,0,10857.716150278,-179689269.95555
8300,-6300,0,10420.17274329,-161038678.79956
8300,-8100,0,11597.413504743,-207394272.92223
8300,-6100,0,10300.485425454,-155528581.38756
8300,-4800,0,9588.0133500116,-123209295.84295
8300,-5800,0,10125.70985166,-145422644.32772
8300,-1300,0,8401.1903918433,-33929141.180947
8300,-4600,0,9489.4678459859,-116763732.80756
8300,-1200,0,8386.298349093,-30791281.821913
8300,-6500,0,10542.295765155,-167972634.58487
8300,-100,0,8300.6023877789,-3240272.6709772
8300,-4700,0,9538.3436717283,-123209295.84295
8300,-3300,0,8931.965069345,-85960804.750679
8300,-7400,0,11119.802156513,-186584724.54131
8300,-1000,0,8360.0239234107,-24831857.796869
8300,-8800,0,12096.693763173,-221141679.41159
8300,-3900,0,9170.6052144883,-96619518.325649
8300,-4400,0,9394.147114028,-113404126.52222
8300,-9900,0,12918.978287775,-251286181.90962
8300,-9100,0,12316.655390162,-227260214.80995
8300,-3500,0,9007.7744199108,-88490420.458309
8300,-3800,0,9128.5267157412,-96619518.325649
8300,-800,0,8338.4650865732,-21249529.635263
8300,-5700,0,10068.763578514,-145422644.32772
8300,-9400,0,12539.936203984,-237407986.98486
8300,-900,0,8348.6525858967,-21249529.635263
8300,-9300,0,12465.151423067,-237238879.58773
8300,-3200,0,8895.5044826024,-79866608.849105
8300,-4300,0,9347.7269964414,-106939511.64321
8300,-5600,0,10012.49219725,-142565914.00459
8300,-4000,0,9213.57693841,-102907671.54587
8300,-7100,0,10922.453936731,-179689269.95555
8300,-4100,0,9257.4294488265,-102907671.54587
8300,-200,0,8302.4092888751,-3240272.6709772
8300,-1700,0,8472.3078319901,-43300039.840253
8300,-3600,0,9047.0989825468,-94454679.039555
8300,-600,0,8321.6584885466,-15449679.6523
8300,-8300,0,11737.972567697,-207394272.92223
8300,-5900,0,10183.319694481,-151701567.66103
8300,0,0,8300,-3240272.6709772
8300,-5400,0,9902.0199959402,-136089172.37071
8300,-2900,0,8792.0418561333,-76288637.262796
8300,-3400,0,8969.3923985965,-85960804.750679
8300,-6700,0,10666.770832825,-169692561.07267
8300,-2300,0,8612.7812000538,-58238124.528375
8300,-7700,0,11321.660655575,-200443901.89552
8300,-5300,0,9847.8424032881,-136089172.37071
8300,-5100,0,9741.663102366,-132674028.49206
8300,-700,0,8329.4657691835,-21249529.635263
8300,-1100,0,8372.5742755738,-30791281.821913
8300,-400,0,8309.6329642169,-12044851.647789
8300,-1900,0,8514.6931829632,-49235743.774192
8300,-5000,0,9689.6852374058,-126221587.52108
8300,-4900,0,9638.4646080172,-126221587.52108
8300,-5500,0,9956.9071503153,-142565914.00459
8400,-400,0,8409.5184166515,-12909984.567988
8400,-5000,0,9775.47952788,-123209295.84295
8400,-7100,0,10998.636279103,-179689269.95555
8400,-1100,0,8471.7176534632,-30791281.821913
8400,-700,0,8429.1162051546,-15449679.6523
8400,-7700,0,11395.17441727,-196580810.54891
8400,-3400,0,9062.0086073674,-85960804.750679
8400,-9600,0,12756.174975282,-248542135.52042
8400,-5900,0,10264.989040423,-155528581.38756
8400,-6700,0,10744.766167767,-169692561.07267
8400,-2300,0,8709.1905479212,-61156461.044214
8400,-7500,0,11260.994627474,-189579359.98953
8400,-8300,0,11808.894952535,-210630073.32071
8400,-600,0,8421.4013085709,-15449679.6523
8400,-3600,0,9138.9277270367,-91183066.674237
8400,0,0,8400,-3240272.6709772
8400,-7600,0,11327.841806805,-196580810.54891
8400,-2900,0,8886.5066252156,-79866608.849105
8400,-2800,0,8854.3774484715,-67164879.522495
8400,-10000,0,13059.862173852,-251286181.90962
8400,-9100,0,12384.264209068,-230922365.19985
8400,-4800,0,9674.7092979583,-123209295.84295
8400,-3800,0,9219.5444572929,-96619518.325649
8400,-1700,0,8570.2975444263,-43300039.840253
8400,-4300,0,9436.6307546709,-106939511.64321
8400,-9300,0,12531.959144523,-237407986.98486
8400,-3200,0,8988.8820216977,-79866608.849105
8400,-5600,0,10095.543571299,-142565914.00459
8400,-900,0,8448.0767041972,-24831857.796869
8400,-200,0,8402.38061504,-3240272.6709772
8400,-800,0,8438.0092438916,-21249529.635263
8400,-9400,0,12606.347607456,-237407986.98486
8400,-3500,0,9100,-85960804.750679
8400,-5400,0,9985.9901862559,-136089172.37071
8400,-5500,0,10040.418317979,-142565914.00459
8400,-4100,0,9347.1920917461,-102907671.54587
8400,-4700,0,9625.4870006665,-116763732.80756
8400,-8800,0,12165.525060596,-221141679.41159
8400,-4400,0,9482.6156729038,-116763732.80756
8400,-3900,0,9261.2094242599,-96619518.325649
8400,-7900,0,11531.261856362,-200443901.89552
8400,-5700,0,10151.354589413,-142565914.00459
8400,-100,0,8400.5952170069,-3240272.6709772
8400,-1000,0,8459.3143930226,-24831857.796869
8400,-6100,0,10381.233067415,-155528581.38756
8400,-5100,0,9827.0036124955,-132674028.49206
8400,-3300,0,9024.9653738948,-85960804.750679
8400,-7400,0,11194.641575325,-189579359.98953
8400,-9900,0,12983.451005029,-251286181.90962
8400,-6500,0,10621.205204684,-167972634.58487
8400,-4500,0,9529.4281045612,-116763732.80756
8400,-5200,0,9879.2712281828,-136089172.37071
8400,-8100,0,11669.190203266,-207394272.92223
8400,-4600,0,9577.0559150503,-116763732.80756
8400,-6300,0,10500,-161038678.79956
8400,-1300,0,8500,-30791281.821913
8400,-5800,0,10207.84012414,-142565914.00459
8400,-4000,0,9303.7626796904,-102907671.54587
8400,-1600,0,8551.0233305728,-43300039.840253
8400,-7300,0,11128.791488747,-189579359.98953
8400,-7000,0,10934.349546269,-175342173.94079
8400,-8000,0,11600,-207394272.92223
8400,-500,0,8414.8677945646,-15449679.6523
8400,-5300,0,9932.2706366671,-136089172.37071
8400,-6000,0,10322.790320451,-155528581.38756
8400,-1800,0,8590.6926379658,-43300039.840253
8400,-8500,0,11950.313803411,-217580429.73092
8400,-9200,0,12457.929201918,-237407986.98486
8400,-2500,0,8764.1314458422,-61156461.044214
8400,-9500,0,12681.088281374,-242074050.98717
8400,-8200,0,11738.824472663,-210630073.32071
8400,-6900,0,10870.602559196,-175342173.94079
8400,-8600,0,12021.647141719,-221141679.41159
8400,-3700,0,9178.7798753429,-96619518.325649
8400,-8700,0,12093.386622448,-221141679.41159
8400,-6600,0,10682.696288859,-169692561.07267
8400,-300,0,8405.3554356731,-3240272.6709772
8400,-3100,0,8953.7701556383,-79866608.849105
8400,-8900,0,12238.055401084,-227260214.80995
8400,-2700,0,8823.2647019116,-67164879.522495
8400,-1200,0,8485.2813742386,-30791281.821913
8400,-2100,0,8658.5218137971,-49235743.774192
8400,-7200,0,11063.453348751,-186584724.54131
8400,-9800,0,12907.36224021,-248542135.52042
8400,-8400,0,11879.393923934,-210630073.32071
8400,-6400,0,10560.303025955,-161038678.79956
8400,-6200,0,10440.306508911,-155528581.38756
8400,-4200,0,9391.4855054991,-102907671.54587
8400,-2200,0,8683.317338437,-61156461.044214
8400,-9000,0,12310.97071721,-227260214.80995
8400,-2000,0,8634.8132579692,-49235743.774192
8400,-6800,0,10807.404868885,-175342173.94079
8400,-3000,0,8919.6412483911,-79866608.849105
8400,-9700,0,12831.601614763,-248542135.52042
8400,-2600,0,8793.1791747922,-67164879.522495
8400,-2400,0,8736.1318671366,-61156461.044214
8400,-7800,0,11462.983904726,-196580810.54891
8400,-1400,0,8515.8675424175,-30791281.821913
8400,-1500,0,8532.8775919967,-43300039.840253
8400,-4900,0,9724.7107926149,-123209295.84295
8400,-1900,0,8612.200647918,-49235743.774192
8500,-4600,0,9664.8848932618,-116763732.80756
8500,-9800,0,12972.66356613,-248542135.52042
8500,-2400,0,8832.3269867006,-61156461.044214
8500,-2000,0,8732.1245982865,-52441913.132303
8500,-3000,0,9013.87818866,-76684953.620382
8500,-8400,0,11950.313803411,-210630073.32071
8500,-6400,0,10640.018796976,-161038678.79956
8500,-6200,0,10520.931517694,-155528581.38756
8500,-300,0,8505.292469986,-6449617.6322033
8500,-4900,0,9811.2180691288,-123209295.84295
8500,-4000,0,9394.147114028,-102907671.54587
8500,-8900,0,12306.908628896,-230922365.19985
8500,-6600,0,10761.50547089,-169692561.07267
8500,-8600,0,12091.732712891,-217580429.73092
8500,-2500,0,8860.0225733347,-61156461.044214
8500,-9200,0,12525.57383915,-237407986.98486
8500,-1800,0,8688.4981440983,-43300039.840253
8500,-6900,0,10948.059188733,-175342173.94079
8500,-5300,0,10016.985574513,-136089172.37071
8500,-500,0,8514.6931829632,-12909984.567988
8500,-7300,0,11204.463396343,-189579359.98953
8500,-1300,0,8598.8371306823,-30791281.821913
8500,-2100,0,8755.569655939,-52441913.132303
8500,-5000,0,9861.541461658,-126806095.28459
8500,-1500,0,8631.338250816,-40179839.295417
8500,-7400,0,11269.871339106,-189579359.98953
8500,-3300,0,9118.1138400439,-85960804.750679
8500,-5700,0,10234.256201601,-142565914.00459
8500,-5100,0,9912.618221237,-133239037.78039
8500,-1000,0,8558.6213843118,-24831857.796869
8500,-6100,0,10462.31331972,-155528581.38756
8500,-3900,0,9352.0051325905,-102907671.54587
8500,-4500,0,9617.6920308357,-116763732.80756
8500,-8800,0,12234.786471369,-221141679.41159
8500,-4100,0,9437.1605899232,-102907671.54587
8500,-5500,0,10124.228365658,-142565914.00459
8500,-5600,0,10178.899744078,-142565914.00459
8500,-9400,0,12673.200069438,-237407986.98486
8500,-3500,0,9192.3881554251,-91183066.674237
8500,-2900,0,8981.0912477271,-76684953.620382
8500,-3200,0,9082.4005637276,-79866608.849105
8500,-1700,0,8668.3331731077,-43300039.840253
8500,-3800,0,9310.7464792035,-96619518.325649
8500,-10000,0,13124.404748407,-251286181.90962
8500,-7500,0,11335.784048755,-189579359.98953
8500,-6700,0,10823.123393919,-169692561.07267
8500,-700,0,8528.7748240882,-15449679.6523
8500,-600,0,8521.1501571091,-12909984.567988
8500,-1100,0,8570.8809348864,-30791281.821913
8500,-1900,0,8709.7646351667,-49235743.774192
8500,-9600,0,12822.246293064,-242074050.98717
8500,-7700,0,11469.088891451,-196580810.54891
8500,-7600,0,11402.192771568,-196580810.54891
8500,-3400,0,9154.7801721287,-85960804.750679
8500,-400,0,8509.4065598019,-12909984.567988
8500,-2300,0,8805.6799851005,-58400462.022456
8500,-3600,0,9230.9262807153,-91183066.674237
8500,-8300,0,11880.235687898,-210630073.32071
8500,-2600,0,8888.7569434652,-67164879.522495
8500,-4300,0,9525.7545632879,-105910775.83999
8500,-100,0,8500.5882149414,-3240272.6709772
8500,-9300,0,12599.206324209,-237407986.98486
8500,-200,0,8502.3526156,-6449617.6322033
8500,-2800,0,8949.3016487322,-70064162.248367
8500,-7100,0,11075.197515169,-178095539.28258
8500,-9100,0,12452.309022828,-230922365.19985
8500,-5400,0,10070.253224224,-136089172.37071
8500,-900,0,8547.5142585432,-24831857.796869
8500,-7900,0,11604.309544303,-196580810.54891
8500,-5200,0,9964.436762808,-133239037.78039
8500,-4700,0,9712.8780492705,-116763732.80756
8500,-2700,0,8918.5200566013,-67164879.522495
8500,-6500,0,10700.467279516,-165283413.07745
8500,-4400,0,9571.3112999212,-113303145.69746
8500,-7200,0,11139.569111954,-185437190.49387
8500,-8000,0,11672.617529929,-210630073.32071
8500,-5900,0,10346.980235798,-152699749.66756
8500,-8100,0,11741.3798167,-210630073.32071
8500,-6300,0,10580.170130957,-161038678.79956
8500,-9900,0,13048.371545906,-248542135.52042
8500,-1600,0,8649.2774264675,-40179839.295417
8500,-5800,0,10290.286682109,-146019697.13066
8500,-6000,0,10404.326023342,-155528581.38756
8500,-7000,0,11011.357772773,-175342173.94079
8500,-800,0,8537.5640553966,-21249529.635263
8500,-8500,0,12020.815280171,-217580429.73092
8500,-4800,0,9761.6596949494,-123209295.84295
8500,-8200,0,11810.588469674,-210630073.32071
8500,-9700,0,12897.286536322,-248542135.52042
8500,-3100,0,9047.651629014,-79866608.849105
8500,-8700,0,12163.058825805,-217580429.73092
8500,-1200,0,8584.2879728024,-30791281.821913
8500,-4200,0,9481.033698917,-105910775.83999
8500,-9000,0,12379.41840314,-230922365.19985
8500,-2200,0,8780.0911157003,-58400462.022456
8500,-6800,0,10885.311203636,-175342173.94079
8500,-7800,0,11536.463929645,-196580810.54891
8500,-9500,0,12747.548783982,-242074050.98717
8500,-3700,0,9270.3829478614,-96619518.325649
8500,0,0,8500,-3240272.6709772
8500,-1400,0,8614.5226217127,-34077265.669951
8600,0,0,8600,-3243669.5223415
8600,-3700,0,9362.1578709184,-91183066.674237
8600,-9500,0,12814.444974325,-242074050.98717
8600,-2200,0,8876.9364084689,-58400462.022456
8600,-6800,0,10963.576058933,-175342173.94079
8600,-9000,0,12448.293055676,-230922365.19985
8600,-4600,0,9752.9482721893,-116763732.80756
8600,-8500,0,12091.732712891,-217580429.73092
8600,-5900,0,10429.285689826,-152699749.66756
8600,-1200,0,8683.317338437,-34077265.669951
8600,-8100,0,11813.974775663,-206989658.6613
8600,-300,0,8605.2309672664,-6449617.6322033
8600,-6500,0,10780.074211247,-165283413.07745
8600,-2700,0,9013.87818866,-70064162.248367
8600,-8700,0,12233.151678942,-220809196.95063
8600,-4700,0,9800.5101908013,-116763732.80756
8600,-8200,0,11882.76062201,-210630073.32071
8600,-3100,0,9141.6628684283,-76684953.620382
8600,-800,0,8637.1291526757,-22141581.866066
8600,-7000,0,11088.733020503,-178095539.28258
8600,-6000,0,10486.181383135,-152699749.66756
8600,-7100,0,11152.129841425,-178095539.28258
8600,-5400,0,10154.801819829,-133239037.78039
8600,-5800,0,10373.041983912,-146019697.13066
8600,-4300,0,9615.0923032491,-105910775.83999
8600,-4500,0,9706.1835960381,-113303145.69746
8600,-3400,0,9247.7024173575,-91183066.674237
8600,-1600,0,8747.5710914516,-40179839.295417
8600,-8000,0,11745.637488021,-206989658.6613
8600,-2000,0,8829.4960218576,-52441913.132303
8600,-1400,0,8713.2083643168,-34077265.669951
8600,-200,0,8602.3252670426,-6449617.6322033
8600,-1100,0,8670.0634369075,-30791281.821913
8600,-700,0,8628.4413424442,-16022186.455538
8600,-6300,0,10660.675400743,-165283413.07745
8600,-9700,0,12963.4100452,-248542135.52042
8600,-9600,0,12888.754788574,-242074050.98717
8600,-4400,0,9660.2277405867,-113303145.69746
8600,-7800,0,11610.34021896,-199898392.52227
8600,-2600,0,8984.4309780865,-70064162.248367
8600,-5600,0,10262.553288534,-146019697.13066
8600,-900,0,8646.964785403,-22141581.866066
8600,-9900,0,13113.73325945,-252225501.8112
8600,-9100,0,12520.782723137,-230922365.19985
8600,-4800,0,9848.8578017961,-123209295.84295
8600,-9400,0,12740.486646906,-242074050.98717
8600,-4100,0,9527.3291115611,-105910775.83999
8600,-2800,0,9044.335243676,-70064162.248367
8600,-7200,0,11216.059914248,-185437190.49387
8600,-9300,0,12666.885963014,-237407986.98486
8600,-8800,0,12304.470732218,-228023646.96296
8600,-6700,0,10901.834707975,-169692561.07267
8600,-100,0,8600.5813756978,-6449617.6322033
8600,-6100,0,10543.718509141,-152699749.66756
8600,-2300,0,8902.2469073824,-58400462.022456
8600,-400,0,8609.2973000124,-12909984.567988
8600,-8300,0,11951.987282456,-210630073.32071
8600,-5100,0,9998.4998874831,-126806095.28459
8600,-3600,0,9323.0896166453,-91183066.674237
8600,-3300,0,9211.4059730315,-85960804.750679
8600,-7600,0,11476.933388323,-196580810.54891
8600,-2100,0,8852.6832090615,-52441913.132303
8600,-7700,0,11543.396380615,-196580810.54891
8600,-600,0,8620.9048249009,-12909984.567988
8600,-6900,0,11025.878649795,-178095539.28258
8600,-5300,0,10101.98000394,-133239037.78039
8600,-2500,0,8956.003573023,-61156461.044214
8600,-1900,0,8807.3832663283,-52441913.132303
8600,-7500,0,11410.959644132,-189579359.98953
8600,-6400,0,10720.074626606,-165283413.07745
8600,-4000,0,9484.7245611035,-102907671.54587
8600,-3800,0,9402.1274188345,-96619518.325649
8600,-3200,0,9176.0557975636,-79866608.849105
8600,-3500,0,9284.9340331528,-91183066.674237
8600,-2400,0,8928.6057142199,-58400462.022456
8600,-1700,0,8766.4131775772,-40179839.295417
8600,-5200,0,10049.875621121,-133239037.78039
8600,-8400,0,12021.647141719,-217580429.73092
8600,-3000,0,9108.2380293886,-76684953.620382
8600,-5500,0,10208.329931972,-142565914.00459
8600,-8900,0,12376.186811777,-228023646.96296
8600,-9800,0,13038.404810405,-248542135.52042
8600,-7900,0,11677.756633875,-199898392.52227
8600,-6600,0,10840.664186294,-165283413.07745
8600,-3900,0,9442.9868156214,-102907671.54587
8600,-1000,0,8657.9443287653,-24831857.796869
8600,-8600,0,12162.236636409,-217580429.73092
8600,-5700,0,10317.460927961,-146019697.13066
8600,-6200,0,10601.886624559,-155528581.38756
8600,-7400,0,11345.483682946,-189579359.98953
8600,-1500,0,8729.833904491,-40179839.295417
8600,-2900,0,9075.7919764613,-76684953.620382
8600,-5000,0,9947.8640923567,-126806095.28459
8600,-4200,0,9570.7888912043,-105910775.83999
8600,-10000,0,13189.389675038,-252225501.8112
8600,-9200,0,12593.649193145,-237407986.98486
8600,-7300,0,11280.514172678,-185437190.49387
8600,-500,0,8614.5226217127,-12909984.567988
8600,-4900,0,9897.9795918157,-126806095.28459
8600,-1800,0,8786.3530545955,-43300039.840253
8600,-1300,0,8697.7008456258,-34077265.669951
8700,-1800,0,8884.2557369765,-43237544.101652
8700,-500,0,8714.3559716137,-12909984.567988
8700,-7300,0,11356.936206566,-185437190.49387
8700,-10000,0,13254.810447532,-252225501.8112
8700,-9200,0,12662.148316933,-230922365.19985
8700,-3900,0,9534.1491492424,-105910775.83999
8700,-5300,0,10187.246929372,-133239037.78039
8700,-4200,0,9660.7453128628,-105910775.83999
8700,-2000,0,8926.9255625887,-52441913.132303
8700,-2900,0,9170.6052144883,-76684953.620382
8700,-1500,0,8828.3633817373,-40179839.295417
8700,-5700,0,10400.961494016,-146019697.13066
8700,-1000,0,8757.2826835726,-22141581.866066
8700,-6200,0,10683.164325236,-156271202.12444
8700,-7400,0,11421.471008587,-185437190.49387
8700,-8600,0,12233.151678942,-220809196.95063
8700,-8900,0,12445.882853378,-228023646.96296
8700,-6600,0,10920.164833921,-163328823.36865
8700,-7900,0,11751.595636338,-199898392.52227
8700,-9800,0,13104.579352272,-252225501.8112
8700,-5500,0,10292.715870945,-142670348.1401
8700,-3000,0,9202.7169901068,-76684953.620382
8700,-100,0,8700.5746936625,-3243669.5223415
8700,-1700,0,8864.5360848721,-43237544.101652
8700,-8400,0,12093.386622448,-217580429.73092
8700,-2400,0,9024.9653738948,-61507365.099464
8700,-3500,0,9377.6329636001,-90871509.243164
8700,-3200,0,9269.8435801258,-76684953.620382
8700,-4900,0,9984.9887330933,-126806095.28459
8700,-4000,0,9575.4895436213,-105910775.83999
8700,-3800,0,9493.682109698,-90871509.243164
8700,-6400,0,10800.46295304,-163328823.36865
8700,-1900,0,8905.0547443573,-49567281.667451
8700,-2500,0,9052.0715861067,-61507365.099464
8700,-6900,0,11104.053313993,-178095539.28258
8700,-600,0,8720.6651122492,-16022186.455538
8700,-4800,0,9936.2970970075,-126806095.28459
8700,-2600,0,9080.1982357215,-67169417.320693
8700,-3600,0,9415.4128958851,-90871509.243164
8700,-7600,0,11552.056094047,-196580810.54891
8700,-7700,0,11618.089343778,-199898392.52227
8700,-8300,0,12024.14238106,-206989658.6613
8700,-3300,0,9304.8374515625,-90871509.243164
8700,-5100,0,10084.641788383,-126806095.28459
8700,-2100,0,8949.8603341058,-52441913.132303
8700,-400,0,8709.1905479212,-12909984.567988
8700,-7200,0,11292.918134831,-185437190.49387
8700,-8000,0,11819.052415486,-206989658.6613
8700,-6100,0,10625.441167312,-152699749.66756
8700,-9400,0,12808.200498118,-242074050.98717
8700,-9300,0,12734.991166075,-242074050.98717
8700,-1300,0,8796.5902484997,-34077265.669951
8700,-6700,0,10980.892495603,-174183313.70779
8700,-2300,0,8998.8888202933,-58400462.022456
8700,-8800,0,12374.570699624,-228023646.96296
8700,-4100,0,9617.6920308357,-105910775.83999
8700,-9900,0,13179.529581893,-252225501.8112
8700,-5600,0,10346.496991736,-146019697.13066
8700,-9700,0,13029.965464267,-248542135.52042
8700,-7800,0,11684.60525649,-199898392.52227
8700,-900,0,8746.427842268,-22141581.866066
8700,-1100,0,8769.2645073575,-30358460.437345
8700,-4400,0,9749.3589532851,-113303145.69746
8700,-9100,0,12589.678312014,-228023646.96296
8700,-4500,0,9794.8966303887,-113303145.69746
8700,0,0,8700,-3243669.5223415
8700,-6300,0,10741.508273981,-163328823.36865
8700,-700,0,8728.1154896117,-16022186.455538
8700,-1400,0,8811.9237400241,-34077265.669951
8700,-200,0,8702.2985469357,-3243669.5223415
8700,-3400,0,9340.7708461347,-90871509.243164
8700,-4300,0,9704.6380664093,-113303145.69746
8700,-1600,0,8845.9030064771,-40179839.295417
8700,-5400,0,10239.628899526,-136370546.59038
8700,-6000,0,10568.348972285,-152699749.66756
8700,-5900,0,10511.898020814,-152699749.66756
8700,-2800,0,9139.474820798,-70064162.248367
8700,-2700,0,9109.3358704134,-70064162.248367
8700,-7000,0,11166.467659918,-178095539.28258
8700,-9600,0,12955.693729014,-242074050.98717
8700,-5200,0,10135.580891098,-133239037.78039
8700,-800,0,8736.7041840731,-22141581.866066
8700,-5000,0,10034.440691937,-126806095.28459
8700,-3100,0,9235.7999112151,-76684953.620382
8700,-8100,0,11886.967653695,-206989658.6613
8700,-6500,0,10860.018416191,-163328823.36865
8700,-4700,0,9888.3770154662,-113303145.69746
8700,-8700,0,12303.657992646,-220809196.95063
8700,-8200,0,11955.333537798,-206989658.6613
8700,-5800,0,10456.098698846,-146019697.13066
8700,-7100,0,11229.425630904,-178095539.28258
8700,-1200,0,8782.3687009827,-34077265.669951
8700,-4600,0,9841.2397592986,-113303145.69746
8700,-300,0,8705.1708771281,-6449617.6322033
8700,-9000,0,12517.587627015,-228023646.96296
8700,-8500,0,12163.058825805,-220809196.95063
8700,-3700,0,9454.0996398388,-90871509.243164
8700,-6800,0,11042.191811411,-178095539.28258
8700,-9500,0,12881.770064708,-242074050.98717
8700,-2200,0,8973.8509013689,-58400462.022456
8700,-7500,0,11486.513831446,-185437190.49387
8800,-3700,0,9546.2034338265,-90871509.243164
8800,-1100,0,8868.4835231284,-30358460.437345
8800,-4300,0,9794.3861471764,-113303145.69746
8800,-8700,0,12374.570699624,-220809196.95063
8800,-6300,0,10822.661410208,-163328823.36865
8800,-500,0,8814.1930997681,-16022186.455538
8800,-1500,0,8926.9255625887,-40179839.295417
8800,-800,0,8836.2888137498,-22141581.866066
8800,-9200,0,12731.064370272,-230849149.16136
8800,-7000,0,11244.554237496,-178095539.28258
8800,-2000,0,9024.4113381428,-49567281.667451
8800,-9100,0,12658.988901172,-228023646.96296
8800,-1200,0,8881.4413244698,-30358460.437345
8800,-4500,0,9883.8251704489,-114919929.46953
8800,-8900,0,12515.989773086,-228023646.96296
8800,-6600,0,11000,-167064045.98871
8800,-7600,0,11627.553482999,-195350123.25734
8800,-5500,0,10377.379245262,-142670348.1401
8800,-100,0,8800.5681634767,-3243669.5223415
8800,-8000,0,11892.854997855,-206989658.6613
8800,-300,0,8805.112151472,-3243669.5223415
8800,-9300,0,12803.515142335,-242165157.83599
8800,-8400,0,12165.525060596,-217593409.79175
8800,-3200,0,9363.7599285757,-79074043.953915
8800,-1800,0,8982.2046291542,-43237544.101652
8800,-9800,0,13171.180660822,-252225501.8112
8800,-2900,0,9265.5275079188,-76684953.620382
8800,-3600,0,9507.8914592038,-90871509.243164
8800,-3800,0,9585.4055730574,-97168366.084869
8800,-1900,0,9002.7773492406,-49567281.667451
8800,-2100,0,9047.0989825468,-49567281.667451
8800,-7700,0,11693.160394008,-199898392.52227
8800,-600,0,8820.43082848,-16022186.455538
8800,-9400,0,12876.334882256,-242165157.83599
8800,-8100,0,11960.351165413,-206989658.6613
8800,-4900,0,10072.239075796,-125869165.77587
8800,-5900,0,10594.810050209,-152699749.66756
8800,-2500,0,9148.2238713315,-61507365.099464
8800,-3500,0,9470.4804524375,-90871509.243164
8800,-8300,0,12096.693763173,-206989658.6613
8800,-3300,0,9398.4041198493,-84929046.588982
8800,-7400,0,11497.825881444,-187891005.89075
8800,-7900,0,11825.819210524,-199898392.52227
8800,-5700,0,10484.750831565,-142670348.1401
8800,-6700,0,11060.289327138,-174183313.70779
8800,-6100,0,10707.474025184,-156271202.12444
8800,-5400,0,10324.727599312,-136370546.59038
8800,-2300,0,9095.6033334793,-61507365.099464
8800,-2400,0,9121.4034007931,-61507365.099464
8800,-7800,0,11759.251676871,-199898392.52227
8800,-7500,0,11562.439189029,-187891005.89075
8800,-4400,0,9838.6991009991,-114919929.46953
8800,-1600,0,8944.2719099992,-43237544.101652
8800,-9900,0,13245.754036672,-252225501.8112
8800,-700,0,8827.7970071814,-16022186.455538
8800,-5300,0,10272.779565434,-136370546.59038
8800,-9700,0,13096.946208945,-248606285.4723
8800,-6000,0,10650.821564555,-156271202.12444
8800,-6900,0,11182.575731914,-174183313.70779
8800,-2600,0,9176.0557975636,-67169417.320693
8800,-1400,0,8910.6677639782,-34077265.669951
8800,-4800,0,10023.971268913,-125869165.77587
8800,-200,0,8802.2724338662,-3243669.5223415
8800,-2800,0,9234.7171044922,-70064162.248367
8800,-6200,0,10764.757312638,-156271202.12444
8800,-5000,0,10121.264743104,-125869165.77587
8800,-8600,0,12304.470732218,-220809196.95063
8800,-6500,0,10940.29250066,-163328823.36865
8800,-10000,0,13320.660644277,-252225501.8112
8800,-4000,0,9666.4367788757,-103475909.72263
8800,-6400,0,10881.176406988,-163328823.36865
8800,-7100,0,11307.077429646,-178095539.28258
8800,-8500,0,12234.786471369,-220809196.95063
8800,-3100,0,9330.0589494386,-79074043.953915
8800,-4200,0,9750.8973945991,-103475909.72263
8800,-3900,0,9625.4870006665,-103475909.72263
8800,-9600,0,13023.05647688,-242165157.83599
8800,-7300,0,11433.722053645,-185437190.49387
8800,-2200,0,9070.8323763589,-58400462.022456
8800,-1700,0,8962.7004859027,-43237544.101652
8800,-9500,0,12949.517365524,-242165157.83599
8800,-3000,0,9297.3114393356,-76684953.620382
8800,-9000,0,12587.295182048,-228023646.96296
8800,-5800,0,10539.449701004,-146019697.13066
8800,-7200,0,11370.136322842,-185437190.49387
8800,-4700,0,9976.4723224194,-120735579.19035
8800,-5100,0,10171.037311897,-125869165.77587
8800,-1300,0,8895.5044826024,-30358460.437345
8800,-8800,0,12445.079348883,-228023646.96296
8800,-8200,0,12028.299963004,-206989658.6613
8800,-400,0,8809.0862182181,-16022186.455538
8800,-5200,0,10221.545871345,-136370546.59038
8800,-2700,0,9204.8900047746,-67169417.320693
8800,-4600,0,9929.7532698451,-114919929.46953
8800,-4100,0,9708.2439194738,-103475909.72263
8800,-3400,0,9433.9811320566,-90871509.243164
8800,-6800,0,11121.151019566,-174183313.70779
8800,-900,0,8845.9030064771,-24377159.981023
8800,0,0,8800,-3243669.5223415
8800,-1000,0,8856.6359301938,-24377159.981023
8800,-5600,0,10430.723848324,-142670348.1401
8900,-5600,0,10515.227054134,-142670348.1401
8900,-5100,0,10257.680049602,-132114203.84336
8900,-4900,0,10159.724405711,-125869165.77587
8900,-900,0,8945.3898741195,-24377159.981023
8900,-9700,0,13164.345787011,-248606285.4723
8900,-3400,0,9527.3291115611,-84929046.588982
8900,-1300,0,8994.4427287075,-30358460.437345
8900,-4100,0,9798.9795387071,-103475909.72263
8900,-6800,0,11200.446419675,-174183313.70779
8900,-4600,0,10018.482919085,-114919929.46953
8900,-400,0,8908.984229417,-13494700.950859
8900,-5200,0,10307.764064044,-132114203.84336
8900,-8800,0,12515.989773086,-228023646.96296
8900,-8200,0,12101.652779683,-210718045.55624
8900,-7300,0,11510.864433221,-187891005.89075
8900,-4700,0,10064.790112069,-120735579.19035
8900,-5800,0,10623.08806327,-142670348.1401
8900,0,0,8900,-3243669.5223415
8900,-9000,0,12657.408897559,-230849149.16136
8900,-3000,0,9392.0178875469,-79074043.953915
8900,-2200,0,9167.8787077491,-58905643.584786
8900,-9500,0,13017.680284905,-242165157.83599
8900,-2700,0,9300.5376188691,-67169417.320693
8900,-1700,0,9060.9050320594,-43237544.101652
8900,-4200,0,9841.2397592986,-103475909.72263
8900,-9600,0,13090.836489698,-242165157.83599
8900,-3700,0,9638.4646080172,-90871509.243164
8900,-100,0,8900.5617800227,-3243669.5223415
8900,-200,0,8902.2469073824,-3243669.5223415
8900,-2800,0,9330.0589494386,-70039679.723418
8900,-7800,0,11834.272263219,-199898392.52227
8900,-3900,0,9716.9954203962,-97168366.084869
8900,-3100,0,9424.4363226667,-79074043.953915
8900,-8500,0,12306.908628896,-217593409.79175
8900,-4000,0,9757.5611707024,-103475909.72263
8900,-7100,0,11385.077953181,-178095539.28258
8900,-6400,0,10962.207806824,-163328823.36865
8900,-10000,0,13386.933928275,-252225501.8112
8900,-6500,0,11020.889256317,-167064045.98871
8900,-8600,0,12376.186811777,-217593409.79175
8900,-6200,0,10846.658471622,-156271202.12444
8900,-4800,0,10111.874208078,-120735579.19035
8900,-2600,0,9272.0008628127,-67169417.320693
8900,-1400,0,9009.4394942194,-33475807.502386
8900,-6900,0,11261.438629234,-174183313.70779
8900,-6000,0,10733.592129385,-156271202.12444
8900,-7900,0,11900.42016065,-199898392.52227
8900,-700,0,8927.4856482663,-13494700.950859
8900,-1600,0,9042.6765949026,-43237544.101652
8900,-9900,0,13312.400234368,-252225501.8112
8900,-4400,0,9928.2425433709,-114919929.46953
8900,-5400,0,10410.091258005,-136370546.59038
8900,-1100,0,8967.7198885781,-30358460.437345
8900,-2400,0,9217.917335277,-61507365.099464
8900,-7500,0,11638.728452885,-187891005.89075
8900,-5000,0,10208.329931972,-125869165.77587
8900,-2300,0,9192.3881554251,-61507365.099464
8900,-9200,0,12800.39061904,-230849149.16136
8900,-7200,0,11447.707194019,-187891005.89075
8900,-6700,0,11140.017953307,-174183313.70779
8900,-6100,0,10789.810007595,-156271202.12444
8900,-8100,0,12034.118164618,-206989658.6613
8900,-5700,0,10568.822072492,-142670348.1401
8900,-7700,0,11768.60229594,-195350123.25734
8900,-3300,0,9492.1019800674,-84929046.588982
8900,-7400,0,11574.541027617,-187891005.89075
8900,-5900,0,10678.014796768,-153198400.58253
8900,-3500,0,9563.4721728042,-90871509.243164
8900,-5300,0,10358.571330063,-136370546.59038
8900,-2500,0,9244.4577991357,-61507365.099464
8900,-8300,0,12169.634341261,-210718045.55624
8900,-2100,0,9144.3971917235,-52919589.246638
8900,-9400,0,12944.883158994,-242165157.83599
8900,-600,0,8920.2017914395,-13494700.950859
8900,-2900,0,9360.5555390692,-75339916.906778
8900,-3800,0,9677.2930099279,-97168366.084869
8900,-3600,0,9600.5208192056,-90871509.243164
8900,-1900,0,9100.5494339628,-49567281.667451
8900,-1800,0,9080.1982357215,-43237544.101652
8900,-3200,0,9457.8010129205,-79074043.953915
8900,-8400,0,12238.055401084,-210718045.55624
8900,-9300,0,12872.451204025,-237556759.0642
8900,-9800,0,13238.202294874,-248606285.4723
8900,-300,0,8905.0547443573,-7173471.4263482
8900,-8000,0,11967.038062946,-206989658.6613
8900,-1200,0,8980.5345052508,-30358460.437345
8900,-5500,0,10462.31331972,-142670348.1401
8900,-7600,0,11703.418304068,-195350123.25734
8900,-4500,0,9972.9634512516,-114919929.46953
8900,-8900,0,12586.500705121,-228023646.96296
8900,-2000,0,9121.951545585,-49567281.667451
8900,-9100,0,12728.707711311,-230849149.16136
8900,-7000,0,11322.985472039,-174183313.70779
8900,-6600,0,11080.162453683,-167064045.98871
8900,-1500,0,9025.5193756371,-40261841.279058
8900,-800,0,8935.882720806,-24377159.981023
8900,-500,0,8914.0338792266,-13494700.950859
8900,-6300,0,10904.127658827,-163328823.36865
8900,-8700,0,12445.882853378,-220809196.95063
8900,-4300,0,9884.3310345213,-109143247.18148
8900,-1000,0,8956.003573023,-24377159.981023
9000,-8700,0,12517.587627015,-217593409.79175
9000,-4300,0,9974.4674043279,-109143247.18148
9000,-800,0,9035.4855984612,-18974293.756771
9000,-6600,0,11160.645142643,-167064045.98871
9000,-1500,0,9124.1437954473,-40261841.279058
9000,-6300,0,10985.90005416,-163328823.36865
9000,-7000,0,11401.754250991,-177193930.88722
9000,-10000,0,13453.624047074,-252225501.8112
9000,-5500,0,10547.511554864,-142670348.1401
9000,-9100,0,12798.828071351,-230849149.16136
9000,-8900,0,12657.408897559,-230849149.16136
9000,-2000,0,9219.5444572929,-52919589.246638
9000,-7600,0,11779.643458102,-195350123.25734
9000,-4500,0,10062.305898749,-114919929.46953
9000,-300,0,9004.9986118822,-7173471.4263482
9000,-8000,0,12041.594578792,-206989658.6613
9000,-1200,0,9079.6475702529,-30358460.437345
9000,-3200,0,9551.9631490076,-84929046.588982
9000,-8400,0,12310.97071721,-210718045.55624
9000,-9800,0,13305.637902784,-248606285.4723
9000,-1800,0,9178.235124467,-43237544.101652
9000,-9300,0,12941.792766074,-237556759.0642
9000,-1900,0,9198.369420718,-49567281.667451
9000,-500,0,9013.87818866,-13494700.950859
9000,-600,0,9019.9778270237,-13494700.950859
9000,-3600,0,9693.2966528421,-90871509.243164
9000,-3800,0,9769.3397934559,-97168366.084869
9000,-2900,0,9455.6861200021,-75339916.906778
9000,-7500,0,11715.37451386,-195350123.25734
9000,-9400,0,13013.838787998,-237556759.0642
9000,-2100,0,9241.7530804496,-52919589.246638
9000,-8300,0,12242.957159118,-210718045.55624
9000,-2500,0,9340.7708461347,-61507365.099464
9000,-6900,0,11340.634902861,-174183313.70779
9000,-3300,0,9585.9271852023,-84929046.588982
9000,-7700,0,11844.407963254,-195350123.25734
9000,-5300,0,10444.615837837,-132114203.84336
9000,-6100,0,10872.442227945,-156271202.12444
9000,-6700,0,11220.071301021,-174183313.70779
9000,-3500,0,9656.603957914,-90871509.243164
9000,-7400,0,11651.609330904,-187891005.89075
9000,-5900,0,10761.50547089,-153198400.58253
9000,-9200,0,12870.120434557,-237556759.0642
9000,-2300,0,9289.2410884851,-58905643.584786
9000,-5700,0,10653.168542739,-146275620.82212
9000,-8100,0,12108.261642366,-210718045.55624
9000,-5000,0,10295.630140987,-125869165.77587
9000,-7200,0,11525.623627379,-183573680.14819
9000,-1100,0,9066.9730340395,-30358460.437345
9000,-9900,0,13379.461872587,-248606285.4723
9000,-700,0,9027.181176868,-18974293.756771
9000,-5400,0,10495.713410722,-136370546.59038
9000,-7900,0,11975.391434104,-199898392.52227
9000,-3100,0,9518.9285111298,-79074043.953915
9000,-1000,0,9055.3851381374,-24377159.981023
9000,-8600,0,12448.293055676,-217593409.79175
9000,-6200,0,10928.860873851,-156271202.12444
9000,-6000,0,10816.653826392,-153198400.58253
9000,-4800,0,10200,-120735579.19035
9000,-1400,0,9108.2380293886,-33475807.502386
9000,-1600,0,9141.1159056212,-40261841.279058
9000,-2600,0,9368.0307429043,-67169417.320693
9000,-5100,0,10344.56378974,-132114203.84336
9000,-4900,0,10247.438704379,-125869165.77587
9000,-6500,0,11101.801655587,-167064045.98871
9000,-8500,0,12379.41840314,-217593409.79175
9000,-2400,0,9314.504817756,-58905643.584786
9000,-6400,0,11043.550153823,-167064045.98871
9000,-7800,0,11909.659944768,-195350123.25734
9000,-4000,0,9848.8578017961,-103475909.72263
9000,-4700,0,10153.324578679,-120735579.19035
9000,-2800,0,9425.4973343585,-70039679.723418
9000,-4400,0,10017.983829095,-109143247.18148
9000,-200,0,9002.2219479415,-7173471.4263482
9000,-3900,0,9808.6696345631,-97168366.084869
9000,-100,0,9000.5555384098,-7173471.4263482
9000,-4200,0,9931.7672143481,-109143247.18148
9000,-9600,0,13159.027319677,-242165157.83599
9000,-3700,0,9730.8786859153,-97168366.084869
9000,-1700,0,9159.1484320323,-40261841.279058
9000,-9700,0,13232.157798334,-248606285.4723
9000,-5600,0,10600,-142670348.1401
9000,-2700,0,9396.2758580195,-70039679.723418
9000,-7100,0,11463.420083029,-183573680.14819
9000,0,0,9000,-3243669.5223415
9000,-9500,0,13086.252328302,-242165157.83599
9000,-3000,0,9486.8329805051,-75339916.906778
9000,-8800,0,12587.295182048,-230849149.16136
9000,-2200,0,9264.9878575204,-58905643.584786
9000,-400,0,9008.8845036442,-7173471.4263482
9000,-9000,0,12727.922061358,-230849149.16136
9000,-6800,0,11280.070921763,-174183313.70779
9000,-8200,0,12175.38500418,-210718045.55624
9000,-4600,0,10107.423014795,-120735579.19035
9000,-4100,0,9889.8938315838,-103475909.72263
9000,-5800,0,10707.007051459,-146275620.82212
9000,-1300,0,9093.4042030474,-33475807.502386
9000,-7300,0,11588.356225108,-187891005.89075
9000,-5200,0,10394.229168149,-132114203.84336
9000,-3400,0,9620.8107766446,-84929046.588982
9000,-900,0,9044.8880590088,-24377159.981023
9100,-7300,0,11666.190466472,-183573680.14819
9100,-3400,0,9714.4222679478,-84929046.588982
9100,-1300,0,9192.3881554251,-33475807.502386
9100,-5200,0,10480.935072788,-132114203.84336
9100,-5800,0,10791.200118615,-146275620.82212
9100,-100,0,9100.5494339628,-3955398.1153252
9100,-9000,0,12798.828071351,-230849149.16136
9100,-6800,0,11360.01760562,-177193930.88722
9100,-400,0,9108.7869664407,-7173471.4263482
9100,-2200,0,9362.1578709184,-52919589.246638
9100,-8800,0,12658.988901172,-226792113.93453
9100,-8200,0,12249.489785293,-210718045.55624
9100,-8700,0,12589.678312014,-220748730.45015
9100,-3000,0,9581.7534929678,-75339916.906778
9100,-9500,0,13155.227098002,-242165157.83599
9100,-5600,0,10685.036265732,-146275620.82212
9100,-7100,0,11542.096863222,-183573680.14819
9100,0,0,9100,-3955398.1153252
9100,-8500,0,12452.309022828,-217593409.79175
9100,-4200,0,10022.474744293,-109143247.18148
9100,-9700,0,13300.375934537,-248606285.4723
9100,-1700,0,9257.4294488265,-40261841.279058
9100,-2800,0,9521.0293561148,-70039679.723418
9100,-2700,0,9492.1019800674,-70039679.723418
9100,-6400,0,11125.196627476,-167064045.98871
9100,-200,0,9102.1975368589,-7173471.4263482
9100,-3900,0,9900.5050376231,-97168366.084869
9100,-3700,0,9823.4413521942,-97168366.084869
9100,-4400,0,10107.917688624,-109143247.18148
9100,-4000,0,9940.3219263764,-97168366.084869
9100,-7800,0,11985.407794481,-195350123.25734
9100,-2400,0,9411.1635837446,-58905643.584786
9100,-6500,0,11183.022847155,-167064045.98871
9100,-1600,0,9239.5887354362,-40261841.279058
9100,-4800,0,10288.34291808,-120735579.19035
9100,-1400,0,9207.0625065761,-33475807.502386
9100,-6000,0,10900,-153198400.58253
9100,-6200,0,11011.357772773,-153198400.58253
9100,-4100,0,9980.9819156233,-109143247.18148
9100,-1000,0,9154.7801721287,-24377159.981023
9100,-8600,0,12520.782723137,-220748730.45015
9100,-7900,0,12050.726119201,-196975948.60179
9100,-3100,0,9613.5321292437,-75339916.906778
9100,-5400,0,10581.587782559,-132114203.84336
9100,-4600,0,10196.568050084,-120735579.19035
9100,-900,0,9144.3971917235,-18974293.756771
9100,-9900,0,13446.932735758,-251364253.69848
9100,-700,0,9126.8833672837,-18974293.756771
9100,-1100,0,9166.2424144248,-33475807.502386
9100,-9200,0,12940.247292846,-237556759.0642
9100,-5700,0,10737.783756437,-146275620.82212
9100,-8100,0,12182.774724996,-209362727.68752
9100,-4700,0,10242.070103255,-120735579.19035
9100,-2300,0,9386.1600242059,-58905643.584786
9100,-5900,0,10845.275469069,-153198400.58253
9100,-6100,0,10955.363982999,-153198400.58253
9100,-5000,0,10383.159442097,-132114203.84336
9100,-6700,0,11300.442469213,-174183313.70779
9100,-3300,0,9679.8760322641,-84929046.588982
9100,-2600,0,9464.1428560647,-70039679.723418
9100,-6900,0,11420.157617126,-177193930.88722
9100,-2100,0,9339.1648448884,-52919589.246638
9100,-8300,0,12316.655390162,-210718045.55624
9100,-3500,0,9749.8717940289,-84929046.588982
9100,-3600,0,9786.214794291,-97168366.084869
9100,-7200,0,11603.878661896,-183573680.14819
9100,-2900,0,9550.916186419,-75339916.906778
9100,-9400,0,13083.195328359,-237556759.0642
9100,-7500,0,11792.370414806,-195350123.25734
9100,-3800,0,9861.541461658,-97168366.084869
9100,-5100,0,10431.682510506,-132114203.84336
9100,-500,0,9113.7259120516,-13494700.950859
9100,-600,0,9119.7587687394,-18974293.756771
9100,-9300,0,13011.533345459,-237556759.0642
9100,-1900,0,9296.2357973537,-52919589.246638
9100,-9600,0,13227.622613304,-242165157.83599
9100,-1200,0,9178.7798753429,-33475807.502386
9100,-8400,0,12384.264209068,-210718045.55624
9100,-9800,0,13373.48122218,-248606285.4723
9100,-1800,0,9276.3139231054,-43101908.629137
9100,-2500,0,9437.1605899232,-63216945.936609
9100,-5300,0,10530.906893521,-132114203.84336
9100,-3200,0,9646.2427918853,-84293450.537608
9100,-8000,0,12116.517651537,-209362727.68752
9100,-4500,0,10151.847122568,-114919929.46953
9100,-300,0,9104.943712072,-7173471.4263482
9100,-2000,0,9317.1884171138,-52919589.246638
9100,-7600,0,11856.221995223,-195350123.25734
9100,-4900,0,10335.376142163,-120735579.19035
9100,-10000,0,13520.724832641,-251364253.69848
9100,-8900,0,12728.707711311,-226792113.93453
9100,-9100,0,12869.343417595,-230849149.16136
9100,-5500,0,10632.967600816,-142670348.1401
9100,-7400,0,11729.023829799,-187891005.89075
9100,-4300,0,10064.790112069,-109143247.18148
9100,-6300,0,11067.971810589,-167064045.98871
9100,-1500,0,9222.7978401351,-40261841.279058
9100,-6600,0,11241.441188744,-167064045.98871
9100,-800,0,9135.0971532874,-18974293.756771
9100,-7000,0,11480.8536268,-177193930.88722
9100,-7700,0,11920.570456148,-195350123.25734
9200,-4100,0,10072.239075796,-108914087.46984
9200,-700,0,9226.5920035515,-18974293.756771
9200,-300,0,9204.8900047746,-3955398.1153252
9200,-400,0,9208.6915465771,-7173471.4263482
9200,-3500,0,9843.2718137822,-89525052.177281
9200,-9300,0,13081.666560496,-237556759.0642
9200,-9100,0,12940.247292846,-226792113.93453
9200,-5900,0,10929.318368499,-153198400.58253
9200,-9600,0,13296.616110876,-248606285.4723
9200,-9500,0,13224.598292576,-237556759.0642
9200,-8200,0,12323.960402403,-209362727.68752
9200,-800,0,9234.7171044922,-19038248.262789
9200,-1200,0,9277.9308037946,-31788324.577227
9200,-1900,0,9394.147114028,-49433128.008995
9200,-6800,0,11440.27971686,-174446390.89614
9200,-2400,0,9507.8914592038,-63216945.936609
9200,-2300,0,9483.1429389206,-58905643.584786
9200,-4700,0,10331.021246711,-120973216.76118
9200,-9700,0,13368.993978606,-251364253.69848
9200,-7100,0,11621.101496846,-183573680.14819
9200,-8600,0,12593.649193145,-220748730.45015
9200,-7300,0,11744.360348695,-183573680.14819
9200,-1600,0,9338.094023943,-43101908.629137
9200,-3100,0,9708.2439194738,-78423412.889136
9200,-6400,0,11207.140580898,-163406888.50355
9200,-5200,0,10567.875850898,-132967597.65394
9200,-4000,0,10031.948963188,-96449041.835511
9200,-6300,0,11150.336317798,-163406888.50355
9200,-5000,0,10470.912090167,-132967597.65394
9200,-8700,0,12662.148316933,-220748730.45015
9200,-4200,0,10113.357503816,-108914087.46984
9200,-2100,0,9436.6307546709,-52919589.246638
9200,-7700,0,11997.082978791,-196975948.60179
9200,-2800,0,9616.652224137,-70039679.723418
9200,-3900,0,9992.4971853886,-96449041.835511
9200,-4800,0,10376.897416858,-120973216.76118
9200,0,0,9200,-3955398.1153252
9200,-3600,0,9879.2712281828,-96449041.835511
9200,-2600,0,9560.3347221737,-68691894.811897
9200,-7900,0,12126.417442922,-196975948.60179
9200,-6700,0,11381.124724736,-167764655.24976
9200,-8300,0,12390.722335683,-209362727.68752
9200,-5600,0,10770.329614269,-144471761.86699
9200,-9900,0,13514.806694881,-251364253.69848
9200,-9800,0,13441.726079637,-251364253.69848
9200,-3000,0,9676.7763227224,-78423412.889136
9200,-7600,0,11933.147112141,-196975948.60179
9200,-1700,0,9355.7468969612,-43101908.629137
9200,-1300,0,9291.3938674453,-33475807.502386
9200,-7000,0,11560.276813295,-177193930.88722
9200,-1100,0,9265.5275079188,-31788324.577227
9200,-5800,0,10875.660899458,-146275620.82212
9200,-4600,0,10285.912696499,-120973216.76118
9200,-8000,0,12191.800523303,-203632380.24933
9200,-4400,0,10198.039027186,-108914087.46984
9200,-4500,0,10241.581909061,-114934861.76019
9200,-9000,0,12870.120434557,-226792113.93453
9200,-6000,0,10983.624174197,-153198400.58253
9200,-5700,0,10822.661410208,-146275620.82212
9200,-3400,0,9808.1598681914,-84293450.537608
9200,-8500,0,12525.57383915,-220748730.45015
9200,-6500,0,11264.546151532,-163406888.50355
9200,-5500,0,10718.675291285,-144471761.86699
9200,-900,0,9243.9169187093,-19038248.262789
9200,-2500,0,9533.6247041721,-63216945.936609
9200,-4900,0,10423.531071571,-120973216.76118
9200,-100,0,9200.5434622092,-3955398.1153252
9200,-7800,0,12061.509026652,-196975948.60179
9200,-1800,0,9374.4333162064,-43101908.629137
9200,-2200,0,9459.3868723084,-52919589.246638
9200,-7400,0,11806.777714516,-183573680.14819
9200,-1400,0,9305.9120993055,-33475807.502386
9200,-6200,0,11094.142598687,-156612296.0869
9200,-8800,0,12731.064370272,-226792113.93453
9200,-200,0,9202.1736562619,-3955398.1153252
9200,-2900,0,9646.2427918853,-75339916.906778
9200,-10000,0,13588.23020117,-251364253.69848
9200,-4300,0,10155.294185793,-108914087.46984
9200,-1500,0,9321.4805690942,-40261841.279058
9200,-3200,0,9740.6365295087,-84293450.537608
9200,-5300,0,10617.438485812,-132967597.65394
9200,-3800,0,9953.8937105034,-96449041.835511
9200,-3700,0,9916.1484458433,-96449041.835511
9200,-3300,0,9773.9449558507,-84293450.537608
9200,-7200,0,11682.465493208,-183573680.14819
9200,-5400,0,10667.708282476,-132967597.65394
9200,-9400,0,13152.946437966,-237556759.0642
9200,-5100,0,10519.030373566,-132967597.65394
9200,-8900,0,12800.39061904,-226792113.93453
9200,-6100,0,11038.568747804,-156612296.0869
9200,-2700,0,9588.0133500116,-68691894.811897
9200,-8100,0,12257.650672131,-209362727.68752
9200,-9200,0,13010.764773832,-237556759.0642
9200,-2000,0,9414.8818367519,-49433128.008995
9200,-6900,0,11500,-177193930.88722
9200,-1000,0,9254.1882410074,-25723096.247628
9200,-6600,0,11322.543883775,-163406888.50355
9200,-8400,0,12457.929201918,-209362727.68752
9200,-7500,0,11869.709347747,-196975948.60179
9200,-600,0,9219.5444572929,-18974293.756771
9200,-500,0,9213.57693841,-18974293.756771
9300,-8400,0,12531.959144523,-216017415.73793
9300,-2000,0,9512.6231923692,-49433128.008995
9300,-7500,0,11947.384651044,-190832816.41457
9300,-6600,0,11403.946685249,-167764655.24976
9300,-1000,0,9353.6089291781,-25723096.247628
9300,-500,0,9313.4311615,-13378990.135233
9300,-6900,0,11580.155439371,-174446390.89614
9300,-9200,0,13081.666560496,-237814774.35412
9300,-6100,0,11122.050170719,-156612296.0869
9300,-2700,0,9684.0074349414,-68691894.811897
9300,-8900,0,12872.451204025,-226792113.93453
9300,-9400,0,13223.085872821,-237814774.35412
9300,-8100,0,12332.882874657,-203632380.24933
9300,-7200,0,11761.377470348,-184871583.2389
9300,-3300,0,9868.1305220391,-84293450.537608
9300,-3700,0,10008.995953641,-96449041.835511
9300,-3200,0,9835.1410767716,-84293450.537608
9300,-3800,0,10046.39238732,-96449041.835511
9300,-5300,0,10704.2047813,-132967597.65394
9300,-4300,0,10245.974819411,-108914087.46984
9300,-2900,0,9741.663102366,-74608620.601485
9300,-5400,0,10754.068997361,-138715658.73704
9300,-8800,0,12803.515142335,-226792113.93453
9300,-200,0,9302.1502890461,-3955398.1153252
9300,-7400,0,11884.864324005,-190832816.41457
9300,-1400,0,9404.7860156412,-31788324.577227
9300,-4100,0,10163.660757818,-102518787.51661
9300,-5100,0,10606.601717798,-132967597.65394
9300,-7800,0,12137.956994486,-196975948.60179
9300,-1800,0,9472.5920423082,-43101908.629137
9300,-4900,0,10511.898020814,-126959698.51314
9300,-5500,0,10804.628637764,-138715658.73704
9300,-6200,0,11177.208953938,-156612296.0869
9300,-900,0,9343.4469014385,-19038248.262789
9300,-2500,0,9630.1609540028,-63216945.936609
9300,-6500,0,11346.365056704,-163406888.50355
9300,-1500,0,9420.1910808645,-38240512.078658
9300,-7700,0,12073.938876771,-196975948.60179
9300,-100,0,9300.5376188691,-3955398.1153252
9300,-8500,0,12599.206324209,-216017415.73793
9300,-4400,0,10288.34291808,-108914087.46984
9300,-5700,0,10907.795377619,-144471761.86699
9300,-6000,0,11067.520047418,-156612296.0869
9300,-3400,0,9902.0199959402,-84293450.537608
9300,-8000,0,12267.436570042,-203632380.24933
9300,-2300,0,9580.187889598,-63216945.936609
9300,-4500,0,10331.505214634,-114934861.76019
9300,-9000,0,12941.792766074,-226792113.93453
9300,-1700,0,9454.0996398388,-43101908.629137
9300,-1300,0,9390.4206508548,-31788324.577227
9300,-5800,0,10960.38320498,-144471761.86699
9300,-1100,0,9364.8278147545,-25723096.247628
9300,-700,0,9326.3068789312,-19038248.262789
9300,-7000,0,11640.017182118,-174446390.89614
9300,-7600,0,12010.412149464,-196975948.60179
9300,-5000,0,10558.88251663,-126959698.51314
9300,-4600,0,10375.451797392,-120973216.76118
9300,-8300,0,12465.151423067,-209362727.68752
9300,-9900,0,13583.077707206,-251364253.69848
9300,-9800,0,13510.366390295,-251364253.69848
9300,-2600,0,9656.603957914,-63216945.936609
9300,-7900,0,12202.458768625,-203632380.24933
9300,-5600,0,10855.873986004,-144471761.86699
9300,-10000,0,13656.134152827,-251364253.69848
9300,-3600,0,9972.4620831568,-89525052.177281
9300,-6700,0,11462.111498324,-167764655.24976
9300,-4800,0,10465.658125507,-120973216.76118
9300,-2800,0,9712.3632551506,-68691894.811897
9300,-3900,0,10084.641788383,-96449041.835511
9300,-4700,0,10420.17274329,-120973216.76118
9300,-4200,0,10204.410811017,-108914087.46984
9300,-3000,0,9771.8984849414,-78423412.889136
9300,-2100,0,9534.1491492424,-49433128.008995
9300,-6400,0,11289.375536317,-163406888.50355
9300,-8700,0,12734.991166075,-220748730.45015
9300,-2200,0,9556.6730612698,-49433128.008995
9300,-4000,0,10123.734488814,-102518787.51661
9300,-6300,0,11232.987136109,-163406888.50355
9300,-3100,0,9803.060746522,-78423412.889136
9300,-7300,0,11822.859214251,-184871583.2389
9300,-7100,0,11700.427342623,-184871583.2389
9300,-1600,0,9436.6307546709,-43101908.629137
9300,-9700,0,13438.005804434,-251364253.69848
9300,-8600,0,12666.885963014,-220748730.45015
9300,-5200,0,10655.045753069,-132967597.65394
9300,-6800,0,11520.850663037,-174446390.89614
9300,-2400,0,9604.6863561493,-63216945.936609
9300,-8200,0,12398.79026357,-209362727.68752
9300,-800,0,9334.3451832467,-19038248.262789
9300,-1200,0,9377.0997648527,-31788324.577227
9300,-5900,0,11013.627921807,-151355783.72278
9300,-9600,0,13366.001645967,-248280005.59979
9300,-9100,0,13011.533345459,-230921099.0449
9300,-9300,0,13152.18613007,-237814774.35412
9300,0,0,9300,-3955398.1153252
9300,-9500,0,13294.359706281,-237814774.35412
9300,-400,0,9308.5981758802,-6974402.3284269
9300,-300,0,9304.8374515625,-3955398.1153252
9300,-3500,0,9936.8002898317,-89525052.177281
9300,-1900,0,9492.1019800674,-49433128.008995
9300,-600,0,9319.3347402054,-19038248.262789
9400,-500,0,9413.288479591,-13378990.135233
9400,-400,0,9408.5067890713,-6974402.3284269
9400,-1900,0,9590.0990610108,-49433128.008995
9400,-300,0,9404.7860156412,-6974402.3284269
9400,-9500,0,13364.505228403,-242084669.30974
9400,-9100,0,13083.195328359,-230921099.0449
9400,-9600,0,13435.773144855,-242084669.30974
9400,-5900,0,11098.198051936,-151355783.72278
9400,-3500,0,10030.453628825,-89525052.177281
9400,-800,0,9433.9811320566,-19038248.262789
9400,-8200,0,12473.97290361,-209362727.68752
9400,0,0,9400,-3955398.1153252
9400,-9300,0,13223.085872821,-237814774.35412
9400,-5200,0,10742.439201597,-132967597.65394
9400,-1200,0,9476.2861923857,-31788324.577227
9400,-2400,0,9701.5462685079,-63216945.936609
9400,-9700,0,13507.405376311,-248280005.59979
9400,-8600,0,12740.486646906,-216017415.73793
9400,-6800,0,11601.724009819,-174446390.89614
9400,-1600,0,9535.1979528482,-38240512.078658
9400,-6300,0,11315.917991926,-163406888.50355
9400,-8700,0,12808.200498118,-220748730.45015
9400,-6400,0,11371.895180664,-163406888.50355
9400,-7300,0,11901.680553603,-184871583.2389
9400,-2100,0,9631.7184344228,-53077743.754124
9400,-3100,0,9897.9795918157,-78423412.889136
9400,-4200,0,10295.630140987,-108914087.46984
9400,-100,0,9400.5318998448,-3955398.1153252
9400,-7900,0,12278.843593759,-203632380.24933
9400,-3900,0,10176.934705499,-102518787.51661
9400,-4000,0,10215.674231298,-102518787.51661
9400,-2800,0,9808.1598681914,-74608620.601485
9400,-3000,0,9867.1171068352,-74608620.601485
9400,-10000,0,13724.430771438,-251364253.69848
9400,-9900,0,13651.739815862,-251364253.69848
9400,-3600,0,10065.783625729,-89525052.177281
9400,-6700,0,11543.396380615,-167764655.24976
9400,-2500,0,9726.7671916213,-63216945.936609
9400,-9800,0,13579.396157414,-248280005.59979
9400,-5600,0,10941.663493272,-144471761.86699
9400,-5800,0,11045.361017187,-144471761.86699
9400,-4700,0,10509.519494249,-120973216.76118
9400,-2600,0,9752.9482721893,-63216945.936609
9400,-8300,0,12539.936203984,-209362727.68752
9400,-7000,0,11720.068259187,-179182348.59805
9400,-7100,0,11780.067911519,-179182348.59805
9400,-2200,0,9654.0147089177,-53077743.754124
9400,-700,0,9426.0277954184,-19038248.262789
9400,-1100,0,9464.1428560647,-25723096.247628
9400,-5000,0,10647.065323365,-126959698.51314
9400,-600,0,9419.1294714533,-19038248.262789
9400,-1300,0,9489.4678459859,-31788324.577227
9400,-1700,0,9552.4865872714,-43101908.629137
9400,-9000,0,13013.838787998,-230921099.0449
9400,-2300,0,9677.2930099279,-60875478.304497
9400,-7600,0,12088.010589009,-190832816.41457
9400,-6000,0,11151.681487561,-151355783.72278
9400,-3400,0,9995.9991996798,-89525052.177281
9400,-4500,0,10421.612159354,-114934861.76019
9400,-5700,0,10993.179703798,-144471761.86699
9400,-4400,0,10378.824596263,-114934861.76019
9400,-8000,0,12343.419299368,-203632380.24933
9400,-1500,0,9518.9285111298,-38240512.078658
9400,-200,0,9402.1274188345,-6974402.3284269
9400,-8500,0,12673.200069438,-216017415.73793
9400,-900,0,9442.9868156214,-25723096.247628
9400,-5500,0,10890.821823903,-138715658.73704
9400,-7800,0,12214.745187682,-196975948.60179
9400,-7700,0,12151.131634543,-196975948.60179
9400,-6500,0,11428.473213864,-167764655.24976
9400,-4800,0,10554.619841567,-120973216.76118
9400,-5100,0,10694.391053258,-126959698.51314
9400,-6200,0,11260.550608207,-156612296.0869
9400,-5400,0,10840.664186294,-138715658.73704
9400,-1800,0,9570.7888912043,-49433128.008995
9400,-4300,0,10336.827366267,-108914087.46984
9400,-7200,0,11840.608092493,-184871583.2389
9400,-3800,0,10139.033484509,-96449041.835511
9400,-3300,0,9962.4294225856,-84293450.537608
9400,-4100,0,10255.242561734,-102518787.51661
9400,-7500,0,12025.389806572,-190832816.41457
9400,-1400,0,9503.6834964134,-38240512.078658
9400,-3200,0,9929.7532698451,-78423412.889136
9400,-8800,0,12876.334882256,-226792113.93453
9400,-7400,0,11963.277142991,-190832816.41457
9400,-5300,0,10791.200118615,-132967597.65394
9400,-3700,0,10101.98000394,-96449041.835511
9400,-8100,0,12408.464852672,-203632380.24933
9400,-2900,0,9837.1743910536,-74608620.601485
9400,-8900,0,12944.883158994,-230921099.0449
9400,-4600,0,10465.180361561,-114934861.76019
9400,-6100,0,11205.802068571,-156612296.0869
9400,-4900,0,10600.471687618,-126959698.51314
9400,-9200,0,13152.946437966,-237814774.35412
9400,-9400,0,13293.607486307,-237814774.35412
9400,-6600,0,11485.643212289,-167764655.24976
9400,-2000,0,9610.4110213872,-49433128.008995
9400,-1000,0,9453.0418384772,-25723096.247628
9400,-6900,0,11660.617479362,-174446390.89614
9400,-8400,0,12606.347607456,-216017415.73793
9400,-2700,0,9780.0817992489,-68691894.811897
9500,-1000,0,9552.4865872714,-25723096.247628
9500,-6900,0,11741.3798167,-179182348.59805
9500,-4600,0,10555.093557141,-114934861.76019
9500,-6100,0,11289.818421923,-151355783.72278
9500,-2000,0,9708.2439194738,-53077743.754124
9500,-4900,0,10689.24693325,-126959698.51314
9500,-9200,0,13224.598292576,-230921099.0449
9500,-9400,0,13364.505228403,-242084669.30974
9500,-6600,0,11567.627241574,-167764655.24976
9500,-2700,0,9876.2341001011,-68691894.811897
9500,-8400,0,12681.088281374,-216017415.73793
9500,-2900,0,9932.7740334712,-74608620.601485
9500,-100,0,9500.5263012109,-6974402.3284269
9500,-7400,0,12042.009799033,-190832816.41457
9500,-3700,0,10195.096860746,-89525052.177281
9500,-8800,0,12949.517365524,-230921099.0449
9500,-8100,0,12484.390253432,-203632380.24933
9500,-8900,0,13017.680284905,-230921099.0449
9500,-3200,0,10024.470060806,-74608620.601485
9500,-1400,0,9602.6038135497,-38240512.078658
9500,-5300,0,10878.419002778,-138715658.73704
9500,-3300,0,10056.83846942,-89525052.177281
9500,-3800,0,10231.813133556,-96449041.835511
9500,-4100,0,10346.980235798,-102518787.51661
9500,-7200,0,11920.151005755,-184871583.2389
9500,-7700,0,12228.65487288,-196975948.60179
9500,-4300,0,10427.847332983,-108914087.46984
9500,-7500,0,12103.71843691,-190832816.41457
9500,-1800,0,9669.0227013902,-49433128.008995
9500,-7800,0,12291.867230002,-203632380.24933
9500,-4800,0,10643.77752492,-126959698.51314
9500,-6200,0,11344.161493914,-156612296.0869
9500,-5100,0,10782.393055347,-126959698.51314
9500,-5400,0,10927.488274988,-138715658.73704
9500,-6500,0,11510.864433221,-167764655.24976
9500,-2300,0,9774.4565066299,-60875478.304497
9500,-900,0,9542.5363504678,-25723096.247628
9500,-5500,0,10977.24920005,-138715658.73704
9500,-4500,0,10511.898020814,-114934861.76019
9500,-5700,0,11078.808600206,-144471761.86699
9500,-8500,0,12747.548783982,-216017415.73793
9500,-200,0,9502.1050299394,-6974402.3284269
9500,-8000,0,12419.742348374,-203632380.24933
9500,-1500,0,9617.6920308357,-38240512.078658
9500,-6000,0,11236.102527122,-151355783.72278
9500,-4400,0,10469.479452198,-114934861.76019
9500,-7600,0,12165.936051122,-190832816.41457
9500,-3400,0,10090.094152187,-89525052.177281
9500,-600,0,9518.9285111298,-13378990.135233
9500,-1700,0,9650.9066931558,-38240512.078658
9500,-1300,0,9588.5348202945,-31788324.577227
9500,-2200,0,9751.4101544341,-53077743.754124
9500,-9000,0,13086.252328302,-230921099.0449
9500,-5000,0,10735.455276792,-126959698.51314
9500,-500,0,9513.1487952202,-13378990.135233
9500,-1100,0,9563.4721728042,-25723096.247628
9500,-7100,0,11860.016863394,-179182348.59805
9500,-700,0,9525.7545632879,-19038248.262789
9500,-2600,0,9849.365461795,-63216945.936609
9500,-8300,0,12615.070352558,-216017415.73793
9500,-7000,0,11800.423721206,-179182348.59805
9500,-4700,0,10599.056561789,-114934861.76019
9500,-3600,0,10159.232254457,-89525052.177281
9500,-5800,0,11130.588483993,-151355783.72278
9500,-5600,0,11027.692415007,-144471761.86699
9500,-2500,0,9823.4413521942,-60875478.304497
9500,-6700,0,11624.973118248,-167764655.24976
9500,-9800,0,13648.809471892,-248280005.59979
9500,-2800,0,9904.0395798886,-74608620.601485
9500,-4000,0,10307.764064044,-102518787.51661
9500,-10000,0,13793.114224134,-251364253.69848
9500,-9900,0,13720.787149431,-248280005.59979
9500,-3000,0,9962.4294225856,-74608620.601485
9500,-4200,0,10387.011119663,-102518787.51661
9500,-3100,0,9992.9975482835,-74608620.601485
9500,-7900,0,12355.565547558,-203632380.24933
9500,-3900,0,10269.371937952,-102518787.51661
9500,-8700,0,12881.770064708,-216017415.73793
9500,-2100,0,9729.3370791642,-53077743.754124
9500,-6400,0,11454.693361238,-167764655.24976
9500,-6300,0,11399.122773266,-163406888.50355
9500,-1600,0,9633.7946833011,-38240512.078658
9500,-6800,0,11682.893477217,-174446390.89614
9500,-1900,0,9688.1370758263,-53077743.754124
9500,-8600,0,12814.444974325,-216017415.73793
9500,-1200,0,9575.4895436213,-25723096.247628
9500,-9700,0,13577.186748366,-248280005.59979
9500,-800,0,9533.6247041721,-19038248.262789
9500,-8200,0,12549.501982151,-203632380.24933
9500,-9300,0,13294.359706281,-237814774.35412
9500,-2400,0,9798.4692682072,-60875478.304497
9500,-5900,0,11183.022847155,-151355783.72278
9500,-3500,0,10124.228365658,-89525052.177281
9500,-9600,0,13505.924625882,-242084669.30974
9500,0,0,9500,-3955398.1153252
9500,-9500,0,13435.028842544,-242084669.30974
9500,-9100,0,13155.227098002,-230921099.0449
9500,-7300,0,11980.818002123,-184871583.2389
9500,-5200,0,10830.050784738,-132967597.65394
9500,-300,0,9504.7356617636,-6974402.3284269
9500,-400,0,9508.4173236139,-13378990.135233
9600,-7300,0,12060.265337048,-190832816.41457
9600,-5200,0,10917.875251165,-127197453.93292
9600,-9100,0,13227.622613304,-229786927.32007
9600,-9500,0,13505.924625882,-242084669.30974
9600,-8200,0,12625.371281669,-203807345.35936
9600,-9700,0,13647.344063956,-248280005.59979
9600,-800,0,9633.2756630338,-25723096.247628
9600,-1600,0,9732.4200484772,-38533202.392771
9600,-6800,0,11764.352935882,-178774240.58382
9600,-5900,0,11268.096556207,-152229251.36016
9600,-9800,0,13718.600511714,-251893301.96033
9600,-3100,0,10088.111815399,-75836905.94078
9600,-200,0,9602.0831073262,-3050278.1905999
9600,-3000,0,10057.832768544,-75836905.94078
9600,-2100,0,9827.0036124955,-53077743.754124
9600,-3900,0,10361.949623502,-102207739.89269
9600,-6700,0,11706.835610019,-166086709.52941
9600,-8300,0,12690.547663517,-216675422.16535
9600,-4000,0,10400,-102207739.89269
9600,-5000,0,10824.047302188,-127197453.93292
9600,-5800,0,11216.059914248,-151355783.72278
9600,-400,0,9608.3297195715,-13378990.135233
9600,-2600,0,9945.8534073251,-63323296.047527
9600,-2200,0,9848.8578017961,-53077743.754124
9600,-700,0,9625.4870006665,-13378990.135233
9600,-9000,0,13159.027319677,-229786927.32007
9600,-4400,0,10560.303025955,-114799046.89554
9600,-6000,0,11320.777358468,-152229251.36016
9600,-1500,0,9716.480844421,-38533202.392771
9600,-4700,0,10688.779163216,-114799046.89554
9600,-1700,0,9749.3589532851,-38533202.392771
9600,-7200,0,12000,-179182348.59805
9600,-5500,0,11063.905277975,-138715658.73704
9600,-900,0,9642.0952079929,-25723096.247628
9600,-7500,0,12182.364302548,-191269905.5749
9600,-5400,0,11014.535850411,-139126630.42042
9600,-5100,0,10870.602559196,-127197453.93292
9600,-7800,0,12369.316876853,-203807345.35936
9600,-4300,0,10519.030373566,-114799046.89554
9600,-3200,0,10119.288512539,-82637474.201551
9600,-4800,0,10733.126291999,-127197453.93292
9600,-3800,0,10324.727599312,-102207739.89269
9600,-8100,0,12560.652849275,-203807345.35936
9600,-8900,0,13090.836489698,-229786927.32007
9600,-4900,0,10778.218776774,-127197453.93292
9600,-100,0,9600.5208192056,-3050278.1905999
9600,-9200,0,13296.616110876,-229786927.32007
9600,-6600,0,11649.892703369,-166086709.52941
9600,-4600,0,10645.186705737,-114799046.89554
9600,-2000,0,9806.120537705,-53077743.754124
9600,-6100,0,11374.093370463,-152229251.36016
9600,-7400,0,12121.056059601,-191269905.5749
9600,-1000,0,9651.9428096109,-25523909.928848
9600,-6900,0,11822.436297143,-178774240.58382
9600,-10000,0,13862.178760931,-251893301.96033
9600,-9400,0,13435.773144855,-242084669.30974
9600,-8400,0,12756.174975282,-216675422.16535
9600,-2700,0,9972.4620831568,-69705235.561397
9600,-2900,0,10028.459502835,-75836905.94078
9600,-7700,0,12306.502346321,-191269905.5749
9600,-3700,0,10288.34291808,-89126890.085607
9600,-8800,0,13023.05647688,-223214980.56646
9600,-1400,0,9701.5462685079,-38533202.392771
9600,-3300,0,10151.354589413,-89126890.085607
9600,-5300,0,10965.856099731,-139126630.42042
9600,-4100,0,10438.869670611,-102207739.89269
9600,-7600,0,12244.182292011,-191269905.5749
9600,-1800,0,9767.2923576598,-44917704.539706
9600,-2300,0,9871.6766559688,-60875478.304497
9600,-6200,0,11428.035701729,-152229251.36016
9600,-6500,0,11593.532679904,-166086709.52941
9600,-4500,0,10602.358228243,-114799046.89554
9600,-8000,0,12496.399481451,-203807345.35936
9600,-8500,0,12822.246293064,-216675422.16535
9600,-5700,0,11164.676439557,-151355783.72278
9600,-600,0,9618.7317251288,-13378990.135233
9600,-1300,0,9687.6209669867,-38533202.392771
9600,-500,0,9613.0120149722,-13378990.135233
9600,-7100,0,11940.268003692,-179182348.59805
9600,-3400,0,10184.301645179,-89126890.085607
9600,-1100,0,9662.8153247384,-25523909.928848
9600,-7000,0,11881.077392223,-178774240.58382
9600,-3600,0,10252.804494381,-89126890.085607
9600,-5600,0,11113.95519156,-138715658.73704
9600,-9900,0,13790.213921473,-251893301.96033
9600,-7900,0,12432.618388739,-203807345.35936
9600,-2800,0,10000,-75836905.94078
9600,-8700,0,12955.693729014,-216675422.16535
9600,-6400,0,11537.764081485,-166086709.52941
9600,-6300,0,11482.595525403,-166086709.52941
9600,-4200,0,10478.549517944,-102207739.89269
9600,-8600,0,12888.754788574,-216675422.16535
9600,-1900,0,9786.214794291,-51299471.899972
9600,-9300,0,13366.001645967,-242084669.30974
9600,-3500,0,10218.121158021,-89126890.085607
9600,-1200,0,9674.7092979583,-25523909.928848
9600,-9600,0,13576.450198782,-242084669.30974
9600,-300,0,9604.6863561493,-6974402.3284269
9600,-2500,0,9920.1814499534,-60875478.304497
9600,0,0,9600,-3050278.1905999
9600,-2400,0,9895.4535014824,-60875478.304497
9700,-9600,0,13647.344063956,-241459071.2388
9700,-1200,0,9773.9449558507,-31880231.419151
9700,-3500,0,10312.128781197,-89126890.085607
9700,-9300,0,13438.005804434,-236044276.34971
9700,-2400,0,9992.4971853886,-63323296.047527
9700,-9900,0,13860.014430007,-251893301.96033
9700,-8600,0,12963.4100452,-216675422.16535
9700,-1900,0,9884.3310345213,-51299471.899972
9700,-2500,0,10016.985574513,-63323296.047527
9700,-6300,0,11566.330446602,-159470047.64725
9700,-4200,0,10570.241246064,-108465775.35258
9700,-6400,0,11621.101496846,-166086709.52941
9700,-7900,0,12509.996003197,-203807345.35936
9700,-2800,0,10096.038827184,-75836905.94078
9700,-8700,0,13029.965464267,-223214980.56646
9700,-5600,0,11200.446419675,-139126630.42042
9700,-7000,0,11962.023240238,-178774240.58382
9700,-3600,0,10346.496991736,-89126890.085607
9700,-1100,0,9762.1718894926,-25523909.928848
9700,-3400,0,10278.618584226,-89126890.085607
9700,-500,0,9712.8780492705,-13689272.883251
9700,-1300,0,9786.7257037275,-31880231.419151
9700,-600,0,9718.5389848475,-13689272.883251
9700,-6200,0,11512.167476197,-159470047.64725
9700,-8500,0,12897.286536322,-216675422.16535
9700,-8000,0,12573.384588089,-203807345.35936
9700,-4500,0,10692.988356863,-114799046.89554
9700,-5700,0,11250.777750893,-145752188.8522
9700,-7100,0,12020.815280171,-178774240.58382
9700,-6500,0,11676.472069936,-166086709.52941
9700,-1800,0,9865.5967888415,-44917704.539706
9700,-4100,0,10530.906893521,-102207739.89269
9700,-7600,0,12322.74320109,-191269905.5749
9700,-5300,0,11053.506231056,-133613373.3435
9700,-3300,0,10245.974819411,-82637474.201551
9700,0,0,9700,-3050278.1905999
9700,-1400,0,9800.5101908013,-38533202.392771
9700,-8800,0,13096.946208945,-223214980.56646
9700,-2300,0,9968.9518004653,-63323296.047527
9700,-7400,0,12200.409829182,-191269905.5749
9700,-8400,0,12831.601614763,-216675422.16535
9700,-2700,0,10068.763578514,-69705235.561397
9700,-2900,0,10124.228365658,-75836905.94078
9700,-3700,0,10381.714694596,-95734725.441816
9700,-6900,0,11903.780911962,-178774240.58382
9700,-10000,0,13931.618714277,-251893301.96033
9700,-1000,0,9751.4101544341,-25523909.928848
9700,-9400,0,13507.405376311,-241459071.2388
9700,-6100,0,11458.621208505,-152229251.36016
9700,-7700,0,12384.667940643,-197597047.24266
9700,-4700,0,10778.682665335,-121074260.69517
9700,-9200,0,13368.993978606,-229786927.32007
9700,-300,0,9704.6380664093,-3050278.1905999
9700,-2000,0,9904.0395798886,-51299471.899972
9700,-7300,0,12140.016474453,-184907057.16965
9700,-6600,0,11732.433677631,-166086709.52941
9700,-5000,0,10912.836478203,-127197453.93292
9700,-3200,0,10214.205793893,-82637474.201551
9700,-8900,0,13164.345787011,-229786927.32007
9700,-8100,0,12637.246535539,-203807345.35936
9700,-3800,0,10417.773274553,-95734725.441816
9700,-4900,0,10867.382389518,-127197453.93292
9700,-4800,0,10822.661410208,-121074260.69517
9700,-4600,0,10735.455276792,-114799046.89554
9700,-7800,0,12447.088012865,-197597047.24266
9700,-4300,0,10610.372283761,-108465775.35258
9700,-5400,0,11101.801655587,-139126630.42042
9700,-7500,0,12261.32129911,-191269905.5749
9700,-900,0,9741.663102366,-25523909.928848
9700,-5500,0,11150.784725749,-139126630.42042
9700,-1700,0,9847.8424032881,-44917704.539706
9700,-7200,0,12080.149005704,-184907057.16965
9700,-6000,0,11405.700329221,-152229251.36016
9700,-4400,0,10651.291001564,-114799046.89554
9700,-5100,0,10959.014554238,-127197453.93292
9700,-2200,0,9946.3561166892,-51299471.899972
9700,-2600,0,10042.410069301,-63323296.047527
9700,-400,0,9708.2439194738,-13689272.883251
9700,-700,0,9725.2249331314,-19163106.307229
9700,-9000,0,13232.157798334,-229786927.32007
9700,-1500,0,9815.2941881535,-38533202.392771
9700,-5800,0,11301.769772916,-152229251.36016
9700,-4000,0,10492.378186093,-102207739.89269
9700,-8300,0,12766.362050326,-210193561.82678
9700,-6700,0,11788.977903109,-166086709.52941
9700,-3900,0,10454.664030948,-102207739.89269
9700,-3100,0,10183.319694481,-75836905.94078
9700,-2100,0,9924.7166206396,-51299471.899972
9700,-3000,0,10153.324578679,-75836905.94078
9700,-5200,0,11005.907504609,-133613373.3435
9700,-9800,0,13788.763541377,-251893301.96033
9700,-5900,0,11353.413583588,-152229251.36016
9700,-6800,0,11846.096403457,-172348722.69052
9700,-100,0,9700.5154502222,-3050278.1905999
9700,-800,0,9732.9337817536,-19163106.307229
9700,-1600,0,9831.0731865855,-38533202.392771
9700,-8200,0,12701.574705524,-210193561.82678
9700,-9700,0,13717.871555019,-247643612.07248
9700,-200,0,9702.0616365801,-3050278.1905999
9700,-9500,0,13577.186748366,-241459071.2388
9700,-9100,0,13300.375934537,-229786927.32007
9800,-9700,0,13788.763541377,-247643612.07248
9800,-2100,0,10022.474744293,-51299471.899972
9800,-2600,0,10139.033484509,-69705235.561397
9800,-7200,0,12160.592090848,-184907057.16965
9800,-7800,0,12525.174649481,-197597047.24266
9800,-4900,0,10956.733089749,-127197453.93292
9800,-2000,0,10001.99980004,-51299471.899972
9800,-7700,0,12463.145670335,-197597047.24266
9800,-200,0,9802.0406038743,-3050278.1905999
9800,-2700,0,10165.13649687,-69705235.561397
9800,-5300,0,11141.364368873,-133613373.3435
9800,-7100,0,12101.652779683,-178774240.58382
9800,-4500,0,10783.784122468,-114799046.89554
9800,-7900,0,12587.692401707,-203807345.35936
9800,-7300,0,12220.065466273,-184907057.16965
9800,-2500,0,10113.851887387,-63323296.047527
9800,-1900,0,9982.4846606444,-44917704.539706
9800,-9600,0,13718.600511714,-247643612.07248
9800,-2800,0,10192.153844993,-69705235.561397
9800,-7000,0,12043.25537386,-178774240.58382
9800,-8000,0,12650.691680695,-203807345.35936
9800,-1800,0,9963.9349656649,-44917704.539706
9800,-2900,0,10220.078277587,-75836905.94078
9800,-6900,0,11985.407794481,-178774240.58382
9800,-300,0,9804.590761475,-7297855.4314441
9800,-8100,0,12714.165328483,-203807345.35936
9800,-4600,0,10825.894882179,-114799046.89554
9800,-5400,0,11189.280584559,-139126630.42042
9800,-1700,0,9946.3561166892,-44917704.539706
9800,-4400,0,10742.439201597,-114799046.89554
9800,-3000,0,10248.902380255,-75836905.94078
9800,-5200,0,11094.142598687,-133613373.3435
9800,-6800,0,11928.118040999,-172348722.69052
9800,-4700,0,10868.762579061,-121074260.69517
9800,-9500,0,13648.809471892,-241459071.2388
9800,-8200,0,12778.106275971,-210193561.82678
9800,-1600,0,9929.7532698451,-38533202.392771
9800,-3100,0,10278.618584226,-82637474.201551
9800,-6700,0,11871.394189395,-172348722.69052
9800,-8300,0,12842.507543311,-210193561.82678
9800,-1500,0,9914.1313285633,-38533202.392771
9800,-400,0,9808.1598681914,-7297855.4314441
9800,-5100,0,11047.624178981,-127197453.93292
9800,-2200,0,10043.903623592,-57381602.682581
9800,-5500,0,11237.882362794,-139126630.42042
9800,-4300,0,10701.868995647,-108465775.35258
9800,-3200,0,10309.219175088,-82637474.201551
9800,-5000,0,11001.81803158,-127197453.93292
9800,-4800,0,10912.378292563,-121074260.69517
9800,-6600,0,11815.244390194,-166086709.52941
9800,-9400,0,13579.396157414,-241459071.2388
9800,-8400,0,12907.36224021,-216675422.16535
9800,-7400,0,12280.065146407,-191269905.5749
9800,-1400,0,9899.4949366117,-38533202.392771
9800,-7600,0,12401.612798342,-191269905.5749
9800,-3300,0,10340.696301507,-82637474.201551
9800,-6500,0,11759.676866309,-166086709.52941
9800,-8500,0,12972.66356613,-216675422.16535
9800,-1300,0,9885.8484714262,-31880231.419151
9800,-500,0,9812.7468121826,-13689272.883251
9800,-3400,0,10373.041983912,-89126890.085607
9800,-5600,0,11287.160847618,-145752188.8522
9800,-6400,0,11704.69991072,-166086709.52941
9800,-4200,0,10662.082348209,-108465775.35258
9800,-2400,0,10089.598604504,-63323296.047527
9800,-8600,0,13038.404810405,-216675422.16535
9800,-1200,0,9873.196037758,-31880231.419151
9800,-9300,0,13510.366390295,-236044276.34971
9800,-3500,0,10406.248123123,-89126890.085607
9800,-9100,0,13373.48122218,-229786927.32007
9800,0,0,9800,-3050278.1905999
9800,-9900,0,13930.183056945,-251893301.96033
9800,-6300,0,11650.321883965,-159470047.64725
9800,-8700,0,13104.579352272,-223214980.56646
9800,-3600,0,10440.306508911,-89126890.085607
9800,-1100,0,9861.541461658,-25523909.928848
9800,-600,0,9818.3501669069,-13689272.883251
9800,-6200,0,11596.551211459,-159470047.64725
9800,-5700,0,11337.107214806,-145752188.8522
9800,-4100,0,10623.08806327,-102207739.89269
9800,-8800,0,13171.180660822,-223214980.56646
9800,-2300,0,10066.280345788,-57381602.682581
9800,-3700,0,10475.208828467,-95734725.441816
9800,-1000,0,9850.8882848198,-25523909.928848
9800,-10000,0,14001.42849855,-251893301.96033
9800,-6100,0,11543.396380615,-152229251.36016
9800,-9200,0,13441.726079637,-236044276.34971
9800,-8900,0,13238.202294874,-223214980.56646
9800,-3800,0,10510.946674777,-95734725.441816
9800,-6000,0,11490.865937779,-152229251.36016
9800,-900,0,9841.2397592986,-25523909.928848
9800,-7500,0,12340.583454602,-191269905.5749
9800,-700,0,9824.9681933327,-19163106.307229
9800,-9000,0,13305.637902784,-229786927.32007
9800,-5800,0,11387.712676389,-145752188.8522
9800,-4000,0,10584.894897919,-102207739.89269
9800,-3900,0,10547.511554864,-102207739.89269
9800,-5900,0,11438.968484964,-152229251.36016
9800,-9800,0,13859.292911256,-251893301.96033
9800,-800,0,9832.5988426255,-19163106.307229
9800,-100,0,9800.5101908013,-3050278.1905999
9900,-7500,0,12420.144926691,-191269905.5749
9900,-9800,0,13930.183056945,-247643612.07248
9900,-100,0,9900.5050376231,-3050278.1905999
9900,-10000,0,14071.602609511,-251893301.96033
9900,-5200,0,11182.575731914,-133613373.3435
9900,-2300,0,10163.660757818,-57381602.682581
9900,-2400,0,10186.75610781,-57381602.682581
9900,-4600,0,10916.501271012,-121074260.69517
9900,-7600,0,12480.785231707,-197597047.24266
9900,-9700,0,13860.014430007,-247643612.07248
9900,-200,0,9902.0199959402,-7297855.4314441
9900,-7400,0,12360.016181219,-184907057.16965
9900,-5300,0,11229.425630904,-133613373.3435
9900,-2200,0,10141.498903022,-57381602.682581
9900,-2500,0,10210.778618695,-63323296.047527
9900,-4500,0,10874.741376235,-114799046.89554
9900,-7300,0,12300.406497348,-184907057.16965
9900,-9600,0,13790.213921473,-247643612.07248
9900,-300,0,9904.5444115315,-7297855.4314441
9900,-7700,0,12541.929676091,-197597047.24266
9900,-5400,0,11276.967677528,-133613373.3435
9900,-2100,0,10120.27667606,-57381602.682581
9900,-2600,0,10235.721762533,-69705235.561397
9900,-4400,0,10833.743581976,-108465775.35258
9900,-7200,0,12241.323457862,-184907057.16965
9900,-9500,0,13720.787149431,-241459071.2388
9900,-4700,0,10959.014554238,-121074260.69517
9900,-7800,0,12603.57092256,-197597047.24266
9900,-2000,0,10100,-51299471.899972
9900,-5100,0,11136.426715962,-133613373.3435
9900,-400,0,9908.0775128175,-7297855.4314441
9900,-2700,0,10261.578825892,-69705235.561397
9900,-5500,0,11325.193155086,-139126630.42042
9900,-7100,0,12182.774724996,-184907057.16965
9900,-7900,0,12665.701717631,-197597047.24266
9900,-4300,0,10793.516572461,-108465775.35258
9900,-1900,0,10080.674580602,-44917704.539706
9900,-9400,0,13651.739815862,-236044276.34971
9900,-2800,0,10288.34291808,-69705235.561397
9900,-500,0,9912.618221237,-13689272.883251
9900,-7000,0,12124.768039018,-178774240.58382
9900,-5600,0,11374.093370463,-145752188.8522
9900,-8000,0,12728.314892396,-203807345.35936
9900,-1800,0,10062.305898749,-44917704.539706
9900,-4200,0,10754.068997361,-108465775.35258
9900,-2900,0,10316.006979447,-69705235.561397
9900,-9300,0,13583.077707206,-236044276.34971
9900,-600,0,9918.1651528899,-19163106.307229
9900,-6900,0,12067.311216671,-172348722.69052
9900,-8100,0,12791.403363197,-210193561.82678
9900,-5700,0,11423.659658796,-145752188.8522
9900,-1700,0,10044.899203078,-44917704.539706
9900,-3000,0,10344.56378974,-75836905.94078
9900,-4100,0,10715.409464878,-108465775.35258
9900,-6800,0,12010.412149464,-172348722.69052
9900,-9200,0,13514.806694881,-236044276.34971
9900,-700,0,9924.7166206396,-19163106.307229
9900,-8200,0,12854.960132182,-210193561.82678
9900,-5800,0,11473.883387938,-145752188.8522
9900,-1600,0,10028.459502835,-44917704.539706
9900,-3100,0,10374.005976478,-82637474.201551
9900,-4000,0,10677.546534668,-102207739.89269
9900,-6700,0,11954.078801815,-172348722.69052
9900,-9100,0,13446.932735758,-236044276.34971
9900,-800,0,9932.2706366671,-19163106.307229
9900,-8300,0,12918.978287775,-210193561.82678
9900,-5900,0,11524.755962709,-145752188.8522
9900,-1500,0,10012.991560967,-38533202.392771
9900,-3200,0,10404.326023342,-82637474.201551
9900,-3900,0,10640.488710581,-95734725.441816
9900,-5000,0,11090.987332064,-127197453.93292
9900,-9000,0,13379.461872587,-229786927.32007
9900,-900,0,9940.8249154685,-19163106.307229
9900,-4800,0,11002.272492535,-121074260.69517
9900,-6000,0,11576.268828945,-152229251.36016
9900,-6600,0,11898.319209031,-172348722.69052
9900,-8400,0,12983.451005029,-210193561.82678
9900,-3800,0,10604.244433245,-95734725.441816
9900,-1400,0,9998.4998874831,-31880231.419151
9900,-8900,0,13312.400234368,-223214980.56646
9900,-6100,0,11628.413477341,-159470047.64725
9900,-1000,0,9950.3768772846,-25523909.928848
9900,-3300,0,10435.516278556,-82637474.201551
9900,-6500,0,11843.141475132,-166086709.52941
9900,-8500,0,13048.371545906,-216675422.16535
9900,-3700,0,10568.822072492,-95734725.441816
9900,-1300,0,9984.9887330933,-31880231.419151
9900,-8800,0,13245.754036672,-223214980.56646
9900,-6200,0,11681.181447097,-159470047.64725
9900,-3400,0,10467.568963231,-82637474.201551
9900,-6400,0,11788.553770501,-159470047.64725
9900,-3600,0,10534.229919648,-95734725.441816
9900,-1100,0,9960.9236519512,-31880231.419151
9900,-8600,0,13113.73325945,-223214980.56646
9900,-4900,0,11046.266337546,-121074260.69517
9900,-1200,0,9972.4620831568,-31880231.419151
9900,-8700,0,13179.529581893,-223214980.56646
9900,-6300,0,11734.564329365,-159470047.64725
9900,-3500,0,10500.476179679,-89126890.085607
9900,-9900,0,14000.714267494,-251893301.96033
9900,0,0,9900,-3050278.1905999
10000,-9900,0,14071.602609511,-247643612.07248
10000,-3500,0,10594.810050209,-89126890.085607
10000,-6300,0,11819.052415486,-159470047.64725
10000,-8700,0,13254.810447532,-223214980.56646
10000,-1200,0,10071.742649611,-31880231.419151
10000,-8600,0,13189.389675038,-223214980.56646
10000,-1100,0,10060.318086423,-31880231.419151
10000,-9800,0,14001.42849855,-247643612.07248
10000,-6400,0,11872.657663725,-159470047.64725
10000,-3400,0,10562.196741209,-82637474.201551
10000,-6200,0,11766.052864066,-159470047.64725
10000,-8800,0,13320.660644277,-223214980.56646
10000,-1300,0,10084.145972763,-31880231.419151
10000,-8500,0,13124.404748407,-216675422.16535
10000,-3700,0,10662.551289443,-95734725.441816
10000,-6100,0,11713.66723106,-159470047.64725
10000,-6500,0,11926.860441877,-166086709.52941
10000,-3300,0,10530.4320899,-82637474.201551
10000,-1000,0,10049.875621121,-25523909.928848
10000,-8900,0,13386.933928275,-223214980.56646
10000,-1400,0,10097.524449091,-31880231.419151
10000,-8400,0,13059.862173852,-210193561.82678
10000,-3800,0,10697.663296253,-95734725.441816
10000,-6000,0,11661.903789691,-152229251.36016
10000,-6600,0,11981.6526406,-172348722.69052
10000,-900,0,10040.418317979,-19163106.307229
10000,-4800,0,11092.33969909,-121074260.69517
10000,-5000,0,11180.339887499,-127197453.93292
10000,-9000,0,13453.624047074,-229786927.32007
10000,-3200,0,10499.523798725,-82637474.201551
10000,-3900,0,10733.592129385,-95734725.441816
10000,-5900,0,11610.770861575,-145752188.8522
10000,-1500,0,10111.874208078,-38533202.392771
10000,-8300,0,12995.768542106,-210193561.82678
10000,-800,0,10031.948963188,-19163106.307229
10000,-9100,0,13520.724832641,-236044276.34971
10000,-6700,0,12037.026210821,-172348722.69052
10000,-3100,0,10469.479452198,-82637474.201551
10000,-4000,0,10770.329614269,-102207739.89269
10000,-5800,0,11560.276813295,-145752188.8522
10000,-1600,0,10127.191120938,-44917704.539706
10000,-8200,0,12932.130528262,-210193561.82678
10000,-700,0,10024.470060806,-19163106.307229
10000,-9200,0,13588.23020117,-236044276.34971
10000,-6800,0,12092.973166265,-172348722.69052
10000,-3000,0,10440.306508911,-75836905.94078
10000,-4100,0,10807.867504739,-108465775.35258
10000,-5700,0,11510.430052783,-145752188.8522
10000,-1700,0,10143.470806386,-44917704.539706
10000,-8100,0,12868.954891521,-210193561.82678
10000,0,0,10000,-3050278.1905999
10000,-600,0,10017.983829095,-19163106.307229
10000,-4900,0,11135.977729863,-121074260.69517
10000,-6900,0,12149.485585818,-172348722.69052
10000,-2900,0,10412.0122935,-69705235.561397
10000,-9300,0,13656.134152827,-236044276.34971
10000,-4200,0,10846.197490365,-108465775.35258
10000,-1800,0,10160.708636704,-44917704.539706
10000,-8000,0,12806.248474866,-203807345.35936
10000,-5600,0,11461.239025516,-145752188.8522
10000,-500,0,10012.49219725,-13689272.883251
10000,-7000,0,12206.555615734,-178774240.58382
10000,-2800,0,10384.603988598,-69705235.561397
10000,-3600,0,10628.264204469,-95734725.441816
10000,-9400,0,13724.430771438,-236044276.34971
10000,-1900,0,10178.899744078,-44917704.539706
10000,-7900,0,12744.018204632,-197597047.24266
10000,-4300,0,10885.311203636,-108465775.35258
10000,-5500,0,11412.712210513,-139126630.42042
10000,-7100,0,12264.175471674,-184907057.16965
10000,-2700,0,10358.088626769,-69705235.561397
10000,-400,0,10007.996802557,-7297855.4314441
10000,-5100,0,11225.417586887,-133613373.3435
10000,-2000,0,10198.039027186,-51299471.899972
10000,-7800,0,12682.27108999,-197597047.24266
10000,-4700,0,11049.434374664,-121074260.69517
10000,-9500,0,13793.114224134,-241459071.2388
10000,-7200,0,12322.337440599,-184907057.16965
10000,-2600,0,10332.473082472,-69705235.561397
10000,-4400,0,10925.200226998,-108465775.35258
10000,-5400,0,11364.85811614,-133613373.3435
10000,-2100,0,10218.121158021,-57381602.682581
10000,-7700,0,12621.01422232,-197597047.24266
10000,-300,0,10004.498987955,-7297855.4314441
10000,-9600,0,13862.178760931,-247643612.07248
10000,-7300,0,12381.033882516,-184907057.16965
10000,-2500,0,10307.764064044,-63323296.047527
10000,-4500,0,10965.856099731,-114799046.89554
10000,-5300,0,11317.685275709,-133613373.3435
10000,-2200,0,10239.140588936,-57381602.682581
10000,-200,0,10001.99980004,-7297855.4314441
10000,-7600,0,12560.254774486,-197597047.24266
10000,-9700,0,13931.618714277,-247643612.07248
10000,-7400,0,12440.257232067,-184907057.16965
10000,-2400,0,10283.968105746,-57381602.682581
10000,-4600,0,11007.270324654,-121074260.69517
10000,-5200,0,11271.202242884,-133613373.3435
10000,-2300,0,10261.091559868,-57381602.682581
10000,-7500,0,12500,-191269905.5749
10000,-100,0,10000.499987501,-7297855.4314441
10000,-10000,0,14142.135623731,-251893301.96033
